

TIME =   5.000e-01

Nodal Displacements

 Node          U1          U2          U3
    1   2.610e-01  -9.665e-01   2.610e-01
    2  -2.610e-01  -9.665e-01   2.610e-01
    3   0.000e+00   0.000e+00   0.000e+00
    4   0.000e+00   0.000e+00   0.000e+00
    5   2.610e-01  -9.665e-01  -2.610e-01
    6  -2.610e-01  -9.665e-01  -2.610e-01
    7   0.000e+00   0.000e+00   0.000e+00
    8   0.000e+00   0.000e+00   0.000e+00

Element Stress

        S11         S22         S33         S12         S23         S13
Element     1
  2.788e-02   5.000e-01   2.788e-02   6.405e-17  -5.019e-02   8.006e-18
  2.788e-02   5.000e-01   2.788e-02   3.203e-17  -3.285e-02   1.334e-18
  2.788e-02   5.000e-01   2.788e-02   0.000e+00  -1.334e-17  -2.669e-18
  2.788e-02   5.000e-01   2.788e-02  -4.270e-17   3.285e-02  -5.338e-18
  2.788e-02   5.000e-01   2.788e-02  -6.405e-17   5.019e-02  -1.068e-17



TIME =   1.000e+00

Nodal Displacements

 Node          U1          U2          U3
    1   5.219e-01  -1.933e+00   5.219e-01
    2  -5.219e-01  -1.933e+00   5.219e-01
    3   0.000e+00   0.000e+00   0.000e+00
    4   0.000e+00   0.000e+00   0.000e+00
    5   5.219e-01  -1.933e+00  -5.219e-01
    6  -5.219e-01  -1.933e+00  -5.219e-01
    7   0.000e+00   0.000e+00   0.000e+00
    8   0.000e+00   0.000e+00   0.000e+00

Element Stress

        S11         S22         S33         S12         S23         S13
Element     1
  5.576e-02   1.000e+00   5.576e-02   8.540e-17  -1.004e-01  -1.601e-17
  5.576e-02   1.000e+00   5.576e-02   5.871e-17  -6.571e-02  -1.334e-17
  5.576e-02   1.000e+00   5.576e-02   4.270e-17  -1.068e-17  -2.135e-17
  5.576e-02   1.000e+00   5.576e-02   0.000e+00   6.571e-02  -1.601e-17
  5.576e-02   1.000e+00   5.576e-02   0.000e+00   1.004e-01  -2.135e-17

		 *** Successful end of program ***
