

TIME =   1.000e+00

Nodal Displacements

 Node          U1          U2          U3
    1  -3.078e-18   5.936e-19   1.576e-16
    2   3.000e-08   3.900e-03   1.733e-05
    3  -1.433e-07   3.900e-03   3.900e-01
    4  -1.733e-07   3.000e-08   1.733e-05
    5  -1.733e-07  -1.733e-07   8.666e-06
    6  -1.433e-07  -1.552e-21  -2.050e-17
    7  -3.900e-03   3.000e-08   3.900e-01
    8  -3.900e-03  -1.433e-07   0.000e+00

Element Stress

        S11         S22         S33         S12         S23         S13
Element     1
 -2.100e-12  -6.694e-12  -2.000e-04   3.000e+00   6.447e-10   1.026e-09
 -2.133e-12  -5.290e-12  -2.000e-04   1.964e+00   3.453e-03  -3.453e-03
 -2.196e-12  -2.633e-12  -2.000e-04  -5.477e-13   1.000e-02  -1.000e-02
 -2.259e-12   2.538e-14  -2.000e-04  -1.964e+00   1.655e-02  -1.655e-02
 -2.292e-12   1.428e-12  -2.000e-04  -3.000e+00   2.000e-02  -2.000e-02
Element     2
 -5.403e-12  -9.628e-12  -2.000e-04   3.000e+00   1.026e-09   6.447e-10
 -4.951e-12  -6.939e-12  -2.000e-04   1.964e+00  -3.453e-03   3.453e-03
 -4.095e-12  -1.841e-12  -2.000e-04  -3.136e-13  -1.000e-02   1.000e-02
 -3.239e-12   3.256e-12  -2.000e-04  -1.964e+00  -1.655e-02   1.655e-02
 -2.787e-12   5.946e-12  -2.000e-04  -3.000e+00  -2.000e-02   2.000e-02

		 *** Successful end of program ***
