

TIME =   1.000e+00

Nodal Displacements

 Node          U1          U2          U3
    1   3.014e-14  -3.814e-18   6.693e-17
    2   5.706e-04   3.901e-03   7.609e-06
    3   1.898e-04   2.950e-03   3.901e-01
    4   1.141e-03   5.706e-04   7.609e-06
    5  -3.863e-07  -3.863e-07   7.605e-06
    6   5.702e-04   7.061e-19  -5.623e-17
    7  -3.711e-03  -9.511e-04   3.901e-01
    8  -2.760e-03   5.702e-04   0.000e+00

Element Stress

        S11         S22         S33         S12         S23         S13
Element     1
  4.875e-05   4.875e-05  -2.098e-04   3.000e+00   2.925e-03   2.925e-03
  6.963e-06   6.963e-06  -2.348e-04   1.964e+00   1.915e-03   1.915e-03
 -2.438e-05  -2.438e-05  -2.536e-04  -3.525e-10  -3.140e-07  -3.140e-07
  6.965e-06   6.965e-06  -2.348e-04  -1.964e+00  -1.915e-03  -1.915e-03
  4.876e-05   4.876e-05  -2.098e-04  -3.000e+00  -2.926e-03  -2.926e-03

		 *** Successful end of program ***
