

TIME =   1.000e-01

Nodal Displacements

 Node          U1          U2          U3
    1   0.000e+00   0.000e+00   0.000e+00
    2   1.316e-03   3.931e-04   8.630e-03
    3   2.135e-03   2.991e-04   3.431e-02
    4   1.976e-03   2.890e-04   7.618e-02
    5   5.437e-04   2.645e-04   1.330e-01
    6  -2.387e-03   2.425e-04   2.035e-01
    7  -6.964e-03   2.202e-04   2.866e-01
    8  -1.326e-02   1.980e-04   3.811e-01
    9  -2.129e-02   1.759e-04   4.858e-01
   10  -3.102e-02   1.538e-04   5.994e-01
   11  -4.234e-02   1.317e-04   7.209e-01
   12  -5.512e-02   1.097e-04   8.491e-01
   13  -6.918e-02   8.776e-05   9.829e-01
   14  -8.433e-02   6.578e-05   1.121e+00
   15  -1.003e-01   4.415e-05   1.263e+00
   16  -1.170e-01   2.070e-05   1.406e+00
   17  -1.339e-01   7.872e-06   1.551e+00
   18   0.000e+00   0.000e+00   0.000e+00
   19   1.316e-03  -3.931e-04   8.630e-03
   20   2.135e-03  -2.991e-04   3.431e-02
   21   1.976e-03  -2.890e-04   7.618e-02
   22   5.437e-04  -2.645e-04   1.330e-01
   23  -2.387e-03  -2.425e-04   2.035e-01
   24  -6.964e-03  -2.202e-04   2.866e-01
   25  -1.326e-02  -1.980e-04   3.811e-01
   26  -2.129e-02  -1.759e-04   4.858e-01
   27  -3.102e-02  -1.538e-04   5.994e-01
   28  -4.234e-02  -1.317e-04   7.209e-01
   29  -5.512e-02  -1.097e-04   8.491e-01
   30  -6.918e-02  -8.776e-05   9.829e-01
   31  -8.433e-02  -6.578e-05   1.121e+00
   32  -1.003e-01  -4.415e-05   1.263e+00
   33  -1.170e-01  -2.070e-05   1.406e+00
   34  -1.339e-01  -7.872e-06   1.551e+00
   35   0.000e+00   0.000e+00   0.000e+00
   36  -1.437e-03  -3.940e-04   8.589e-03
   37  -3.310e-03  -2.998e-04   3.416e-02
   38  -5.949e-03  -2.896e-04   7.587e-02
   39  -9.673e-03  -2.650e-04   1.325e-01
   40  -1.471e-02  -2.429e-04   2.028e-01
   41  -2.119e-02  -2.204e-04   2.856e-01
   42  -2.922e-02  -1.981e-04   3.798e-01
   43  -3.878e-02  -1.759e-04   4.842e-01
   44  -4.986e-02  -1.537e-04   5.976e-01
   45  -6.234e-02  -1.316e-04   7.189e-01
   46  -7.611e-02  -1.096e-04   8.469e-01
   47  -9.098e-02  -8.756e-05   9.805e-01
   48  -1.067e-01  -6.555e-05   1.119e+00
   49  -1.232e-01  -4.389e-05   1.260e+00
   50  -1.401e-01  -2.042e-05   1.404e+00
   51  -1.571e-01  -7.591e-06   1.549e+00
   52   0.000e+00   0.000e+00   0.000e+00
   53  -1.437e-03   3.940e-04   8.589e-03
   54  -3.310e-03   2.998e-04   3.416e-02
   55  -5.949e-03   2.896e-04   7.587e-02
   56  -9.673e-03   2.650e-04   1.325e-01
   57  -1.471e-02   2.429e-04   2.028e-01
   58  -2.119e-02   2.204e-04   2.856e-01
   59  -2.922e-02   1.981e-04   3.798e-01
   60  -3.878e-02   1.759e-04   4.842e-01
   61  -4.986e-02   1.537e-04   5.976e-01
   62  -6.234e-02   1.316e-04   7.189e-01
   63  -7.611e-02   1.096e-04   8.469e-01
   64  -9.098e-02   8.756e-05   9.805e-01
   65  -1.067e-01   6.555e-05   1.119e+00
   66  -1.232e-01   4.389e-05   1.260e+00
   67  -1.401e-01   2.042e-05   1.404e+00
   68  -1.571e-01   7.591e-06   1.549e+00

Element Stress

        S11         S22         S33         S12         S23         S13
Element     1
  2.291e+04   2.941e+03  -3.989e+00  -2.658e-07   4.087e-09   4.044e+01
  1.498e+04   1.919e+03  -1.224e+01  -1.738e-07   4.203e-09   4.028e+01
 -2.729e+01  -9.047e+00  -1.843e+01   3.544e-10   4.423e-09   3.998e+01
 -1.501e+04  -1.924e+03  -1.224e+01   1.743e-07   4.643e-09   3.968e+01
 -2.290e+04  -2.929e+03  -3.989e+00   2.660e-07   4.760e-09   3.952e+01
Element     2
  2.141e+04  -4.975e+02  -6.420e+00  -4.581e-07   1.728e-09   3.980e+01
  1.400e+04  -3.313e+02  -1.487e+01  -2.997e-07   1.867e-09   3.986e+01
 -2.463e+01  -5.396e+00  -2.121e+01   4.844e-10   2.129e-09   3.998e+01
 -1.402e+04   3.348e+02  -1.487e+01   3.004e-07   2.392e-09   4.009e+01
 -2.140e+04   5.200e+02  -6.420e+00   4.584e-07   2.530e-09   4.015e+01
Element     3
  1.991e+04   9.383e+01  -4.548e+00  -4.073e-07  -1.910e-09   3.994e+01
  1.302e+04   5.678e+01  -1.163e+01  -2.664e-07  -1.802e-09   3.993e+01
 -1.972e+01  -4.472e+00  -1.695e+01   3.806e-10  -1.599e-09   3.992e+01
 -1.304e+04  -5.395e+01  -1.163e+01   2.670e-07  -1.396e-09   3.990e+01
 -1.990e+04  -7.530e+01  -4.548e+00   4.075e-07  -1.288e-09   3.989e+01
Element     4
  1.842e+04  -9.145e+00  -4.341e+00  -4.077e-07  -5.596e-11   3.978e+01
  1.205e+04  -1.006e+01  -1.044e+01  -2.667e-07   5.925e-11   3.980e+01
 -1.558e+01  -4.029e+00  -1.501e+01   3.115e-10   2.776e-10   3.984e+01
 -1.206e+04   1.215e+01  -1.044e+01   2.671e-07   4.960e-10   3.988e+01
 -1.840e+04   2.478e+01  -4.341e+00   4.078e-07   6.112e-10   3.990e+01
Element     5
  1.693e+04   7.691e+00  -3.450e+00  -3.897e-07  -9.232e-10   3.973e+01
  1.107e+04   1.642e+00  -8.592e+00  -2.550e-07  -8.277e-10   3.974e+01
 -1.170e+01  -3.286e+00  -1.245e+01   2.283e-10  -6.468e-10   3.975e+01
 -1.108e+04   3.472e-01  -8.592e+00   2.552e-07  -4.658e-10   3.976e+01
 -1.691e+04   5.714e+00  -3.450e+00   3.897e-07  -3.704e-10   3.977e+01
Element     6
  1.544e+04   3.829e+00  -2.969e+00  -3.680e-07  -9.851e-10   3.962e+01
  1.010e+04  -3.359e-01  -7.247e+00  -2.408e-07  -8.703e-10   3.963e+01
 -8.173e+00  -2.791e+00  -1.046e+01   1.178e-10  -6.526e-10   3.965e+01
 -1.010e+04   1.877e+00  -7.247e+00   2.409e-07  -4.349e-10   3.967e+01
 -1.542e+04   7.209e+00  -2.969e+00   3.678e-07  -3.201e-10   3.968e+01
Element     7
  1.395e+04   3.650e+00  -2.374e+00  -3.391e-07  -9.496e-10   3.952e+01
  9.129e+03   7.743e-02  -5.868e+00  -2.220e-07  -8.943e-10   3.953e+01
 -4.975e+00  -2.251e+00  -8.488e+00   4.347e-11  -7.895e-10   3.954e+01
 -9.127e+03   1.237e+00  -5.868e+00   2.219e-07  -6.846e-10   3.956e+01
 -1.394e+04   5.421e+00  -2.374e+00   3.389e-07  -6.294e-10   3.957e+01
Element     8
  1.247e+04   2.869e+00  -1.918e+00  -3.044e-07  -1.199e-09   3.942e+01
  8.161e+03   2.652e-02  -4.708e+00  -1.993e-07  -1.145e-09   3.942e+01
 -2.108e+00  -1.812e+00  -6.801e+00  -5.460e-11  -1.042e-09   3.944e+01
 -8.156e+03   9.969e-01  -4.708e+00   1.991e-07  -9.395e-10   3.945e+01
 -1.245e+04   4.351e+00  -1.918e+00   3.040e-07  -8.854e-10   3.946e+01
Element     9
  1.099e+04   2.275e+00  -1.476e+00  -2.645e-07  -1.285e-09   3.932e+01
  7.196e+03   5.318e-02  -3.644e+00  -1.732e-07  -1.229e-09   3.932e+01
  4.307e-01  -1.401e+00  -5.271e+00  -1.716e-10  -1.124e-09   3.934e+01
 -7.188e+03   7.552e-01  -3.644e+00   1.728e-07  -1.019e-09   3.935e+01
 -1.098e+04   3.348e+00  -1.476e+00   2.640e-07  -9.635e-10   3.935e+01
Element    10
  9.521e+03   1.714e+00  -1.109e+00  -2.207e-07  -1.169e-09   3.922e+01
  6.233e+03   4.426e-02  -2.735e+00  -1.446e-07  -1.187e-09   3.923e+01
  2.645e+00  -1.054e+00  -3.954e+00  -2.106e-10  -1.221e-09   3.924e+01
 -6.222e+03   5.559e-01  -2.735e+00   1.441e-07  -1.256e-09   3.925e+01
 -9.503e+03   2.496e+00  -1.109e+00   2.202e-07  -1.274e-09   3.926e+01
Element    11
  8.051e+03   1.243e+00  -7.866e-01  -1.751e-07  -1.331e-09   3.914e+01
  5.271e+03   4.409e-02  -1.949e+00  -1.147e-07  -1.219e-09   3.914e+01
  4.536e+00  -7.514e-01  -2.820e+00  -2.801e-10  -1.006e-09   3.915e+01
 -5.259e+03   3.882e-01  -1.949e+00   1.141e-07  -7.933e-10   3.916e+01
 -8.033e+03   1.769e+00  -7.866e-01   1.744e-07  -6.810e-10   3.916e+01
Element    12
  6.585e+03   7.657e-01  -5.231e-01  -1.297e-07  -1.364e-09   3.906e+01
  4.312e+03  -1.366e-02  -1.300e+00  -8.502e-08  -1.272e-09   3.907e+01
  6.108e+00  -5.029e-01  -1.883e+00  -3.510e-10  -1.097e-09   3.907e+01
 -4.297e+03   3.015e-01  -1.300e+00   8.429e-08  -9.228e-10   3.908e+01
 -6.567e+03   1.247e+00  -5.231e-01   1.289e-07  -8.308e-10   3.909e+01
Element    13
  5.121e+03   8.145e-01  -3.106e-01  -8.698e-08  -7.871e-10   3.900e+01
  3.354e+03   2.224e-01  -7.800e-01  -5.707e-08  -8.096e-10   3.901e+01
  7.362e+00  -3.031e-01  -1.132e+00  -3.662e-10  -8.523e-10   3.901e+01
 -3.338e+03  -4.703e-02  -7.800e-01   5.632e-08  -8.950e-10   3.902e+01
 -5.102e+03   4.030e-01  -3.106e-01   8.622e-08  -9.175e-10   3.902e+01
Element    14
  3.659e+03  -1.656e+00  -1.527e-01  -5.031e-08  -1.050e-09   3.896e+01
  2.398e+03  -1.243e+00  -3.922e-01  -3.307e-08  -9.596e-10   3.896e+01
  8.301e+00  -1.552e-01  -5.718e-01  -4.109e-10  -7.874e-10   3.896e+01
 -2.380e+03   1.332e+00  -3.922e-01   3.225e-08  -6.152e-10   3.897e+01
 -3.640e+03   2.277e+00  -1.527e-01   4.947e-08  -5.243e-10   3.897e+01
Element    15
  2.198e+03   1.108e+01  -4.720e-02  -2.241e-08   8.377e-11   3.892e+01
  1.442e+03   7.200e+00  -1.328e-01  -1.479e-08  -1.845e-11   3.893e+01
  8.927e+00  -5.316e-02  -1.970e-01  -3.485e-10  -2.122e-10   3.893e+01
 -1.424e+03  -7.164e+00  -1.328e-01   1.409e-08  -4.060e-10   3.893e+01
 -2.180e+03  -1.086e+01  -4.720e-02   2.171e-08  -5.082e-10   3.893e+01
Element    16
  7.389e+02  -6.402e+01   6.297e-03  -7.110e-09  -8.427e-10   3.891e+01
  4.869e+02  -4.192e+01  -4.264e-03  -4.835e-09  -7.930e-10   3.891e+01
  9.237e+00  -7.829e-03  -1.219e-02  -5.225e-10  -6.989e-10   3.891e+01
 -4.684e+02   4.192e+01  -4.264e-03   3.790e-09  -6.047e-10   3.891e+01
 -7.203e+02   6.404e+01   6.297e-03   6.064e-09  -5.551e-10   3.891e+01



TIME =   2.000e-01

Nodal Displacements

 Node          U1          U2          U3
    1   0.000e+00   0.000e+00   0.000e+00
    2   2.421e-03   7.552e-04   1.662e-02
    3   3.054e-03   5.722e-04   6.601e-02
    4   2.648e-04   5.514e-04   1.463e-01
    5  -7.018e-03   5.030e-04   2.549e-01
    6  -1.959e-02   4.599e-04   3.893e-01
    7  -3.793e-02   4.162e-04   5.470e-01
    8  -6.229e-02   3.732e-04   7.257e-01
    9  -9.266e-02   3.305e-04   9.229e-01
   10  -1.289e-01   2.883e-04   1.136e+00
   11  -1.705e-01   2.464e-04   1.364e+00
   12  -2.171e-01   2.049e-04   1.603e+00
   13  -2.680e-01   1.637e-04   1.852e+00
   14  -3.226e-01   1.226e-04   2.109e+00
   15  -3.799e-01   8.229e-05   2.371e+00
   16  -4.391e-01   3.870e-05   2.638e+00
   17  -4.995e-01   1.488e-05   2.906e+00
   18   0.000e+00   0.000e+00   0.000e+00
   19   2.421e-03  -7.552e-04   1.662e-02
   20   3.054e-03  -5.722e-04   6.601e-02
   21   2.648e-04  -5.514e-04   1.463e-01
   22  -7.018e-03  -5.030e-04   2.549e-01
   23  -1.959e-02  -4.599e-04   3.893e-01
   24  -3.793e-02  -4.162e-04   5.470e-01
   25  -6.229e-02  -3.732e-04   7.257e-01
   26  -9.266e-02  -3.305e-04   9.229e-01
   27  -1.289e-01  -2.883e-04   1.136e+00
   28  -1.705e-01  -2.464e-04   1.364e+00
   29  -2.171e-01  -2.049e-04   1.603e+00
   30  -2.680e-01  -1.637e-04   1.852e+00
   31  -3.226e-01  -1.226e-04   2.109e+00
   32  -3.799e-01  -8.229e-05   2.371e+00
   33  -4.391e-01  -3.870e-05   2.638e+00
   34  -4.995e-01  -1.487e-05   2.906e+00
   35   0.000e+00   0.000e+00   0.000e+00
   36  -2.868e-03  -7.586e-04   1.647e-02
   37  -7.385e-03  -5.749e-04   6.545e-02
   38  -1.488e-02  -5.535e-04   1.451e-01
   39  -2.649e-02  -5.047e-04   2.530e-01
   40  -4.298e-02  -4.610e-04   3.865e-01
   41  -6.486e-02  -4.170e-04   5.433e-01
   42  -9.237e-02  -3.736e-04   7.210e-01
   43  -1.255e-01  -3.306e-04   9.173e-01
   44  -1.641e-01  -2.881e-04   1.130e+00
   45  -2.079e-01  -2.460e-04   1.356e+00
   46  -2.562e-01  -2.043e-04   1.595e+00
   47  -3.085e-01  -1.629e-04   1.843e+00
   48  -3.641e-01  -1.217e-04   2.100e+00
   49  -4.222e-01  -8.132e-05   2.362e+00
   50  -4.820e-01  -3.768e-05   2.628e+00
   51  -5.424e-01  -1.384e-05   2.896e+00
   52   0.000e+00   0.000e+00   0.000e+00
   53  -2.868e-03   7.586e-04   1.647e-02
   54  -7.385e-03   5.749e-04   6.545e-02
   55  -1.488e-02   5.535e-04   1.451e-01
   56  -2.649e-02   5.047e-04   2.530e-01
   57  -4.298e-02   4.610e-04   3.865e-01
   58  -6.486e-02   4.170e-04   5.433e-01
   59  -9.237e-02   3.736e-04   7.210e-01
   60  -1.255e-01   3.306e-04   9.173e-01
   61  -1.641e-01   2.881e-04   1.130e+00
   62  -2.079e-01   2.460e-04   1.356e+00
   63  -2.562e-01   2.043e-04   1.595e+00
   64  -3.085e-01   1.629e-04   1.843e+00
   65  -3.641e-01   1.217e-04   2.100e+00
   66  -4.222e-01   8.133e-05   2.362e+00
   67  -4.820e-01   3.768e-05   2.628e+00
   68  -5.424e-01   1.384e-05   2.896e+00

Element Stress

        S11         S22         S33         S12         S23         S13
Element     1
  4.404e+04   5.659e+03  -1.471e+01  -5.356e-05   7.596e-07   8.157e+01
  2.877e+04   3.680e+03  -4.519e+01  -3.499e-05   8.073e-07   8.098e+01
 -1.007e+02  -3.345e+01  -6.804e+01   1.365e-07   8.979e-07   7.986e+01
 -2.887e+04  -3.700e+03  -4.519e+01   3.519e-05   9.884e-07   7.875e+01
 -4.400e+04  -5.615e+03  -1.471e+01   5.365e-05   1.036e-06   7.816e+01
Element     2
  4.105e+04  -9.558e+02  -2.360e+01  -9.274e-05   2.876e-07   7.919e+01
  2.682e+04  -6.464e+02  -5.467e+01  -6.062e-05   3.424e-07   7.941e+01
 -9.022e+01  -1.984e+01  -7.796e+01   1.833e-07   4.461e-07   7.984e+01
 -2.689e+04   6.591e+02  -5.467e+01   6.088e-05   5.499e-07   8.027e+01
 -4.099e+04   1.038e+03  -2.360e+01   9.285e-05   6.046e-07   8.050e+01
Element     3
  3.806e+04   1.847e+02  -1.658e+01  -8.322e-05  -4.261e-07   7.945e+01
  2.487e+04   1.040e+02  -4.246e+01  -5.441e-05  -3.834e-07   7.942e+01
 -7.153e+01  -1.634e+01  -6.187e+01   1.352e-07  -3.026e-07   7.938e+01
 -2.493e+04  -9.363e+01  -4.246e+01   5.459e-05  -2.218e-07   7.933e+01
 -3.801e+04  -1.171e+02  -1.658e+01   8.328e-05  -1.791e-07   7.930e+01
Element     4
  3.510e+04  -1.440e+01  -1.575e+01  -8.382e-05  -7.060e-08   7.862e+01
  2.294e+04  -2.420e+01  -3.788e+01  -5.482e-05  -2.661e-08   7.869e+01
 -5.584e+01  -1.463e+01  -5.447e+01   9.297e-08   5.679e-08   7.883e+01
 -2.298e+04   3.180e+01  -3.788e+01   5.492e-05   1.402e-07   7.896e+01
 -3.504e+04   7.115e+01  -1.575e+01   8.381e-05   1.842e-07   7.903e+01
Element     5
  3.215e+04   1.823e+01  -1.242e+01  -8.047e-05  -2.314e-07   7.810e+01
  2.102e+04  -3.008e-01  -3.097e+01  -5.264e-05  -1.965e-07   7.813e+01
 -4.130e+01  -1.185e+01  -4.488e+01   4.007e-08  -1.305e-07   7.817e+01
 -2.104e+04   7.479e+00  -3.097e+01   5.265e-05  -6.437e-08   7.821e+01
 -3.209e+04   3.012e+01  -1.242e+01   8.037e-05  -2.951e-08   7.823e+01
Element     6
  2.924e+04   1.040e+01  -1.064e+01  -7.619e-05  -2.154e-07   7.733e+01
  1.912e+04  -3.381e+00  -2.597e+01  -4.987e-05  -1.809e-07   7.737e+01
 -2.818e+01  -1.001e+01  -3.746e+01  -1.864e-08  -1.156e-07   7.745e+01
 -1.912e+04   8.896e+00  -2.597e+01   4.977e-05  -5.036e-08   7.752e+01
 -2.917e+04   2.915e+01  -1.064e+01   7.600e-05  -1.593e-08   7.756e+01
Element     7
  2.634e+04   9.775e+00  -8.446e+00  -7.035e-05  -2.432e-07   7.662e+01
  1.723e+04  -1.836e+00  -2.089e+01  -4.607e-05  -2.156e-07   7.665e+01
 -1.641e+01  -8.019e+00  -3.022e+01  -8.254e-08  -1.633e-07   7.670e+01
 -1.722e+04   6.520e+00  -2.089e+01   4.585e-05  -1.111e-07   7.675e+01
 -2.628e+04   2.254e+01  -8.446e+00   7.006e-05  -8.348e-08   7.677e+01
Element     8
  2.348e+04   7.843e+00  -6.785e+00  -6.322e-05  -2.620e-07   7.587e+01
  1.536e+04  -1.423e+00  -1.667e+01  -4.142e-05  -2.355e-07   7.590e+01
 -5.969e+00  -6.418e+00  -2.408e+01  -1.498e-07  -1.851e-07   7.595e+01
 -1.534e+04   5.044e+00  -1.667e+01   4.108e-05  -1.348e-07   7.600e+01
 -2.342e+04   1.772e+01  -6.785e+00   6.281e-05  -1.082e-07   7.603e+01
Element     9
  2.065e+04   6.285e+00  -5.193e+00  -5.497e-05  -2.655e-07   7.516e+01
  1.351e+04  -9.442e-01  -1.283e+01  -3.606e-05  -2.443e-07   7.518e+01
  3.189e+00  -4.935e+00  -1.856e+01  -2.183e-07  -2.040e-07   7.522e+01
 -1.348e+04   3.792e+00  -1.283e+01   3.559e-05  -1.636e-07   7.526e+01
 -2.058e+04   1.352e+01  -5.193e+00   5.446e-05  -1.424e-07   7.529e+01
Element    10
  1.784e+04   4.765e+00  -3.883e+00  -4.594e-05  -2.694e-07   7.449e+01
  1.168e+04  -6.586e-01  -9.580e+00  -3.017e-05  -2.493e-07   7.451e+01
  1.110e+01  -3.693e+00  -1.385e+01  -2.857e-07  -2.113e-07   7.454e+01
 -1.164e+04   2.761e+00  -9.580e+00   2.957e-05  -1.732e-07   7.458e+01
 -1.777e+04   9.989e+00  -3.883e+00   4.532e-05  -1.531e-07   7.460e+01
Element    11
  1.506e+04   3.445e+00  -2.742e+00  -3.651e-05  -2.549e-07   7.388e+01
  9.859e+03  -4.310e-01  -6.797e+00  -2.402e-05  -2.384e-07   7.390e+01
  1.780e+01  -2.622e+00  -9.838e+00  -3.497e-07  -2.071e-07   7.393e+01
 -9.810e+03   1.940e+00  -6.797e+00   2.331e-05  -1.758e-07   7.396e+01
 -1.499e+04   7.067e+00  -2.742e+00   3.578e-05  -1.593e-07   7.398e+01
Element    12
  1.229e+04   2.152e+00  -1.817e+00  -2.715e-05  -2.334e-07   7.336e+01
  8.054e+03  -3.811e-01  -4.517e+00  -1.791e-05  -2.184e-07   7.337e+01
  2.332e+01  -1.748e+00  -6.543e+00  -4.070e-07  -1.899e-07   7.340e+01
 -7.998e+03   1.382e+00  -4.517e+00   1.709e-05  -1.615e-07   7.342e+01
 -1.223e+04   4.845e+00  -1.817e+00   2.631e-05  -1.464e-07   7.343e+01
Element    13
  9.549e+03   1.904e+00  -1.075e+00  -1.837e-05  -1.919e-07   7.292e+01
  6.260e+03   1.694e-01  -2.702e+00  -1.218e-05  -1.801e-07   7.293e+01
  2.770e+01  -1.051e+00  -3.922e+00  -4.560e-07  -1.577e-07   7.295e+01
 -6.199e+03   4.385e-01  -2.702e+00   1.127e-05  -1.353e-07   7.297e+01
 -9.481e+03   2.315e+00  -1.075e+00   1.745e-05  -1.234e-07   7.298e+01
Element    14
  6.820e+03  -2.940e+00  -5.276e-01  -1.081e-05  -1.403e-07   7.259e+01
  4.475e+03  -2.474e+00  -1.355e+00  -7.244e-06  -1.307e-07   7.260e+01
  3.097e+01  -5.366e-01  -1.976e+00  -4.940e-07  -1.125e-07   7.261e+01
 -4.410e+03   2.780e+00  -1.355e+00   6.254e-06  -9.425e-08   7.263e+01
 -6.752e+03   5.085e+00  -5.276e-01   9.813e-06  -8.465e-08   7.264e+01
Element    15
  4.102e+03   2.057e+01  -1.627e-01  -5.095e-06  -5.752e-08   7.237e+01
  2.696e+03   1.327e+01  -4.583e-01  -3.514e-06  -5.155e-08   7.238e+01
  3.313e+01  -1.836e-01  -6.800e-01  -5.190e-07  -4.023e-08   7.238e+01
 -2.629e+03  -1.315e+01  -4.583e-01   2.476e-06  -2.891e-08   7.239e+01
 -4.033e+03  -1.979e+01  -1.627e-01   4.056e-06  -2.294e-08   7.240e+01
Element    16
  1.389e+03  -1.189e+02   2.174e-02  -1.889e-06   6.968e-10   7.226e+01
  9.213e+02  -7.787e+01  -1.469e-02  -1.420e-06   2.727e-09   7.226e+01
  3.420e+01  -2.704e-02  -4.202e-02  -5.313e-07   6.577e-09   7.227e+01
 -8.528e+02   7.788e+01  -1.469e-02   3.575e-07   1.043e-08   7.227e+01
 -1.321e+03   1.190e+02   2.174e-02   8.263e-07   1.246e-08   7.227e+01



TIME =   3.000e-01

Nodal Displacements

 Node          U1          U2          U3
    1   0.000e+00   0.000e+00   0.000e+00
    2   3.305e-03   1.073e-03   2.367e-02
    3   3.028e-03   8.083e-04   9.382e-02
    4  -3.996e-03   7.760e-04   2.075e-01
    5  -1.985e-02   7.045e-04   3.605e-01
    6  -4.602e-02   6.411e-04   5.490e-01
    7  -8.335e-02   5.777e-04   7.691e-01
    8  -1.322e-01   5.158e-04   1.017e+00
    9  -1.925e-01   4.551e-04   1.290e+00
   10  -2.637e-01   3.955e-04   1.583e+00
   11  -3.451e-01   3.370e-04   1.895e+00
   12  -4.357e-01   2.795e-04   2.221e+00
   13  -5.342e-01   2.228e-04   2.560e+00
   14  -6.392e-01   1.667e-04   2.908e+00
   15  -7.493e-01   1.118e-04   3.264e+00
   16  -8.629e-01   5.274e-05   3.623e+00
   17  -9.783e-01   2.048e-05   3.986e+00
   18   0.000e+00   0.000e+00   0.000e+00
   19   3.305e-03  -1.073e-03   2.367e-02
   20   3.028e-03  -8.083e-04   9.382e-02
   21  -3.996e-03  -7.760e-04   2.075e-01
   22  -1.985e-02  -7.045e-04   3.605e-01
   23  -4.602e-02  -6.411e-04   5.490e-01
   24  -8.335e-02  -5.777e-04   7.691e-01
   25  -1.322e-01  -5.158e-04   1.017e+00
   26  -1.925e-01  -4.551e-04   1.290e+00
   27  -2.637e-01  -3.955e-04   1.583e+00
   28  -3.451e-01  -3.370e-04   1.895e+00
   29  -4.357e-01  -2.795e-04   2.221e+00
   30  -5.342e-01  -2.228e-04   2.560e+00
   31  -6.392e-01  -1.667e-04   2.908e+00
   32  -7.493e-01  -1.118e-04   3.264e+00
   33  -8.629e-01  -5.273e-05   3.623e+00
   34  -9.783e-01  -2.048e-05   3.986e+00
   35   0.000e+00   0.000e+00   0.000e+00
   36  -4.208e-03  -1.080e-03   2.336e-02
   37  -1.175e-02  -8.136e-04   9.271e-02
   38  -2.536e-02  -7.800e-04   2.052e-01
   39  -4.719e-02  -7.076e-04   3.567e-01
   40  -7.870e-02  -6.433e-04   5.435e-01
   41  -1.208e-01  -5.791e-04   7.618e-01
   42  -1.738e-01  -5.165e-04   1.008e+00
   43  -2.377e-01  -4.551e-04   1.279e+00
   44  -3.121e-01  -3.950e-04   1.571e+00
   45  -3.962e-01  -3.361e-04   1.881e+00
   46  -4.889e-01  -2.782e-04   2.206e+00
   47  -5.892e-01  -2.212e-04   2.543e+00
   48  -6.955e-01  -1.649e-04   2.891e+00
   49  -8.066e-01  -1.099e-04   3.246e+00
   50  -9.207e-01  -5.067e-05   3.605e+00
   51  -1.036e+00  -1.838e-05   3.967e+00
   52   0.000e+00   0.000e+00   0.000e+00
   53  -4.208e-03   1.080e-03   2.336e-02
   54  -1.175e-02   8.136e-04   9.271e-02
   55  -2.536e-02   7.800e-04   2.052e-01
   56  -4.719e-02   7.076e-04   3.567e-01
   57  -7.870e-02   6.433e-04   5.435e-01
   58  -1.208e-01   5.791e-04   7.618e-01
   59  -1.738e-01   5.165e-04   1.008e+00
   60  -2.377e-01   4.551e-04   1.279e+00
   61  -3.121e-01   3.950e-04   1.571e+00
   62  -3.962e-01   3.361e-04   1.881e+00
   63  -4.889e-01   2.782e-04   2.206e+00
   64  -5.892e-01   2.212e-04   2.543e+00
   65  -6.955e-01   1.649e-04   2.891e+00
   66  -8.066e-01   1.099e-04   3.246e+00
   67  -9.207e-01   5.067e-05   3.605e+00
   68  -1.036e+00   1.838e-05   3.967e+00

Element Stress

        S11         S22         S33         S12         S23         S13
Element     1
  6.260e+04   8.045e+03  -2.963e+01  -9.096e-06   1.198e-07   1.231e+02
  4.085e+04   5.218e+03  -9.118e+01  -5.938e-06   1.318e-07   1.219e+02
 -2.032e+02  -6.765e+01  -1.373e+02   3.293e-08   1.545e-07   1.196e+02
 -4.105e+04  -5.257e+03  -9.118e+01   5.985e-06   1.773e-07   1.174e+02
 -6.251e+04  -7.956e+03  -2.963e+01   9.118e-06   1.893e-07   1.162e+02
Element     2
  5.813e+04  -1.372e+03  -4.734e+01  -1.586e-05   3.988e-08   1.182e+02
  3.794e+04  -9.397e+02  -1.096e+02  -1.036e-05   5.355e-08   1.186e+02
 -1.801e+02  -3.978e+01  -1.563e+02   4.542e-08   7.947e-08   1.195e+02
 -3.809e+04   9.653e+02  -1.096e+02   1.043e-05   1.054e-07   1.204e+02
 -5.800e+04   1.538e+03  -4.734e+01   1.589e-05   1.191e-07   1.209e+02
Element     3
  5.366e+04   2.595e+02  -3.284e+01  -1.435e-05  -8.087e-08   1.183e+02
  3.504e+04   1.361e+02  -8.426e+01  -9.377e-06  -7.016e-08   1.182e+02
 -1.407e+02  -3.247e+01  -1.228e+02   3.609e-08  -4.986e-08   1.181e+02
 -3.515e+04  -1.156e+02  -8.426e+01   9.427e-06  -2.955e-08   1.180e+02
 -5.354e+04  -1.250e+02  -3.284e+01   1.437e-05  -1.884e-08   1.180e+02
Element     4
  4.926e+04  -2.402e+01  -3.102e+01  -1.447e-05  -2.232e-08   1.161e+02
  3.217e+04  -4.484e+01  -7.459e+01  -9.460e-06  -1.129e-08   1.162e+02
 -1.080e+02  -2.885e+01  -1.073e+02   2.930e-08   9.622e-09   1.165e+02
 -3.224e+04   5.976e+01  -7.459e+01   9.497e-06   3.053e-08   1.168e+02
 -4.914e+04   1.358e+02  -3.102e+01   1.448e-05   4.157e-08   1.169e+02
Element     5
  4.493e+04   2.433e+01  -2.419e+01  -1.390e-05  -4.849e-08   1.144e+02
  2.935e+04  -7.953e+00  -6.037e+01  -9.090e-06  -3.970e-08   1.145e+02
 -7.800e+01  -2.312e+01  -8.751e+01   2.119e-08  -2.303e-08   1.145e+02
 -2.939e+04   2.197e+01  -6.037e+01   9.114e-06  -6.362e-09   1.146e+02
 -4.480e+04   7.005e+01  -2.419e+01   1.390e-05   2.430e-09   1.147e+02
Element     6
  4.067e+04   1.386e+01  -2.056e+01  -1.314e-05  -4.746e-08   1.122e+02
  2.658e+04  -1.064e+01  -5.020e+01  -8.596e-06  -3.869e-08   1.123e+02
 -5.132e+01  -1.937e+01  -7.243e+01   1.283e-08  -2.205e-08   1.124e+02
 -2.658e+04   2.128e+01  -5.020e+01   8.606e-06  -5.418e-09   1.126e+02
 -4.054e+04   6.262e+01  -2.056e+01   1.313e-05   3.357e-09   1.127e+02
Element     7
  3.649e+04   1.361e+01  -1.616e+01  -1.210e-05  -5.115e-08   1.101e+02
  2.386e+04  -6.877e+00  -4.002e+01  -7.916e-06  -4.426e-08   1.102e+02
 -2.772e+01  -1.537e+01  -5.791e+01   4.533e-09  -3.120e-08   1.103e+02
 -2.384e+04   1.586e+01  -4.002e+01   7.912e-06  -1.814e-08   1.104e+02
 -3.636e+04   4.835e+01  -1.616e+01   1.208e-05  -1.125e-08   1.104e+02
Element     8
  3.240e+04   1.113e+01  -1.289e+01  -1.083e-05  -5.530e-08   1.080e+02
  2.119e+04  -5.180e+00  -3.168e+01  -7.087e-06  -4.860e-08   1.080e+02
 -7.067e+00  -1.221e+01  -4.577e+01  -3.620e-09  -3.591e-08   1.081e+02
 -2.114e+04   1.206e+01  -3.168e+01   7.070e-06  -2.322e-08   1.082e+02
 -3.226e+04   3.747e+01  -1.289e+01   1.080e-05  -1.653e-08   1.083e+02
Element     9
  2.838e+04   9.064e+00  -9.781e+00  -9.372e-06  -5.596e-08   1.059e+02
  1.857e+04  -3.611e+00  -2.419e+01  -6.137e-06  -5.043e-08   1.060e+02
  1.079e+01  -9.311e+00  -3.500e+01  -1.128e-08  -3.996e-08   1.061e+02
 -1.850e+04   8.985e+00  -2.419e+01   6.107e-06  -2.949e-08   1.061e+02
 -2.825e+04   2.831e+01  -9.781e+00   9.331e-06  -2.397e-08   1.062e+02
Element    10
  2.444e+04   6.901e+00  -7.266e+00  -7.792e-06  -5.655e-08   1.040e+02
  1.600e+04  -2.561e+00  -1.794e+01  -5.105e-06  -5.137e-08   1.041e+02
  2.602e+01  -6.920e+00  -2.595e+01  -1.774e-08  -4.156e-08   1.041e+02
 -1.591e+04   6.499e+00  -1.794e+01   5.064e-06  -3.174e-08   1.042e+02
 -2.430e+04   2.074e+01  -7.266e+00   7.743e-06  -2.657e-08   1.042e+02
Element    11
  2.057e+04   4.963e+00  -5.098e+00  -6.156e-06  -5.311e-08   1.023e+02
  1.347e+04  -1.754e+00  -1.265e+01  -4.037e-06  -4.909e-08   1.024e+02
  3.876e+01  -4.882e+00  -1.831e+01  -2.358e-08  -4.147e-08   1.024e+02
 -1.337e+04   4.564e+00  -1.265e+01   3.987e-06  -3.385e-08   1.025e+02
 -2.043e+04   1.461e+01  -5.098e+00   6.100e-06  -2.983e-08   1.025e+02
Element    12
  1.675e+04   3.033e+00  -3.360e+00  -4.548e-06  -5.179e-08   1.009e+02
  1.098e+04  -1.330e+00  -8.363e+00  -2.987e-06  -4.778e-08   1.009e+02
  4.915e+01  -3.239e+00  -1.211e+01  -2.884e-08  -4.018e-08   1.009e+02
 -1.086e+04   3.183e+00  -8.363e+00   2.927e-06  -3.259e-08   1.010e+02
 -1.662e+04   9.928e+00  -3.360e+00   4.485e-06  -2.858e-08   1.010e+02
Element    13
  1.299e+04   2.539e+00  -1.980e+00  -3.051e-06  -4.379e-08   9.965e+01
  8.522e+03  -3.249e-01  -4.980e+00  -2.008e-06  -4.077e-08   9.967e+01
  5.732e+01  -1.938e+00  -7.231e+00  -3.230e-08  -3.505e-08   9.971e+01
 -8.397e+03   1.446e+00  -4.980e+00   1.943e-06  -2.933e-08   9.974e+01
 -1.285e+04   5.244e+00  -1.980e+00   2.984e-06  -2.631e-08   9.976e+01
Element    14
  9.270e+03  -4.128e+00  -9.684e-01  -1.769e-06  -3.514e-08   9.873e+01
  6.089e+03  -3.712e+00  -2.490e+00  -1.170e-06  -3.286e-08   9.875e+01
  6.335e+01  -9.866e-01  -3.632e+00  -3.477e-08  -2.854e-08   9.877e+01
 -5.957e+03   4.274e+00  -2.490e+00   1.100e-06  -2.422e-08   9.880e+01
 -9.131e+03   8.070e+00  -9.684e-01   1.699e-06  -2.194e-08   9.881e+01
Element    15
  5.578e+03   2.766e+01  -2.980e-01  -8.043e-07  -2.075e-08   9.812e+01
  3.674e+03   1.775e+01  -8.402e-01  -5.389e-07  -1.938e-08   9.812e+01
  6.734e+01  -3.368e-01  -1.247e+00  -3.602e-08  -1.678e-08   9.814e+01
 -3.538e+03  -1.753e+01  -8.402e-01   4.668e-07  -1.419e-08   9.815e+01
 -5.439e+03  -2.623e+01  -2.980e-01   7.319e-07  -1.282e-08   9.816e+01
Element    16
  1.904e+03  -1.610e+02   3.986e-02  -2.653e-07  -1.084e-08   9.781e+01
  1.270e+03  -1.055e+02  -2.689e-02  -1.865e-07  -1.037e-08   9.781e+01
  6.931e+01  -4.963e-02  -7.695e-02  -3.708e-08  -9.476e-09   9.782e+01
 -1.131e+03   1.055e+02  -2.689e-02   1.123e-07  -8.579e-09   9.782e+01
 -1.765e+03   1.612e+02   3.986e-02   1.911e-07  -8.106e-09   9.783e+01



TIME =   4.000e-01

Nodal Displacements

 Node          U1          U2          U3
    1   0.000e+00   0.000e+00   0.000e+00
    2   4.004e-03   1.348e-03   2.979e-02
    3   2.379e-03   1.009e-03   1.178e-01
    4  -9.710e-03   9.638e-04   2.599e-01
    5  -3.540e-02   8.700e-04   4.502e-01
    6  -7.681e-02   7.876e-04   6.834e-01
    7  -1.351e-01   7.060e-04   9.542e-01
    8  -2.105e-01   6.273e-04   1.258e+00
    9  -3.029e-01   5.509e-04   1.589e+00
   10  -4.112e-01   4.768e-04   1.945e+00
   11  -5.344e-01   4.048e-04   2.320e+00
   12  -6.706e-01   3.347e-04   2.712e+00
   13  -8.182e-01   2.662e-04   3.118e+00
   14  -9.751e-01   1.988e-04   3.533e+00
   15  -1.139e+00   1.333e-04   3.956e+00
   16  -1.308e+00   6.302e-05   4.384e+00
   17  -1.479e+00   2.472e-05   4.814e+00
   18   0.000e+00   0.000e+00   0.000e+00
   19   4.004e-03  -1.348e-03   2.979e-02
   20   2.379e-03  -1.009e-03   1.178e-01
   21  -9.710e-03  -9.638e-04   2.599e-01
   22  -3.540e-02  -8.700e-04   4.502e-01
   23  -7.681e-02  -7.876e-04   6.834e-01
   24  -1.351e-01  -7.060e-04   9.542e-01
   25  -2.105e-01  -6.273e-04   1.258e+00
   26  -3.029e-01  -5.509e-04   1.589e+00
   27  -4.112e-01  -4.768e-04   1.945e+00
   28  -5.344e-01  -4.048e-04   2.320e+00
   29  -6.706e-01  -3.347e-04   2.712e+00
   30  -8.182e-01  -2.662e-04   3.118e+00
   31  -9.751e-01  -1.988e-04   3.533e+00
   32  -1.139e+00  -1.333e-04   3.956e+00
   33  -1.308e+00  -6.302e-05   4.384e+00
   34  -1.479e+00  -2.472e-05   4.814e+00
   35   0.000e+00   0.000e+00   0.000e+00
   36  -5.429e-03  -1.359e-03   2.930e-02
   37  -1.611e-02  -1.017e-03   1.161e-01
   38  -3.632e-02  -9.698e-04   2.562e-01
   39  -6.927e-02  -8.747e-04   4.443e-01
   40  -1.171e-01  -7.907e-04   6.749e-01
   41  -1.810e-01  -7.079e-04   9.430e-01
   42  -2.613e-01  -6.280e-04   1.244e+00
   43  -3.578e-01  -5.507e-04   1.573e+00
   44  -4.697e-01  -4.758e-04   1.926e+00
   45  -5.957e-01  -4.032e-04   2.299e+00
   46  -7.344e-01  -3.325e-04   2.689e+00
   47  -8.839e-01  -2.636e-04   3.093e+00
   48  -1.042e+00  -1.959e-04   3.507e+00
   49  -1.207e+00  -1.302e-04   3.929e+00
   50  -1.377e+00  -5.975e-05   4.357e+00
   51  -1.548e+00  -2.139e-05   4.787e+00
   52   0.000e+00   0.000e+00   0.000e+00
   53  -5.429e-03   1.359e-03   2.930e-02
   54  -1.611e-02   1.017e-03   1.161e-01
   55  -3.632e-02   9.698e-04   2.562e-01
   56  -6.927e-02   8.747e-04   4.443e-01
   57  -1.171e-01   7.907e-04   6.749e-01
   58  -1.810e-01   7.079e-04   9.430e-01
   59  -2.613e-01   6.280e-04   1.244e+00
   60  -3.578e-01   5.507e-04   1.573e+00
   61  -4.697e-01   4.758e-04   1.926e+00
   62  -5.957e-01   4.032e-04   2.299e+00
   63  -7.344e-01   3.325e-04   2.689e+00
   64  -8.839e-01   2.636e-04   3.093e+00
   65  -1.042e+00   1.959e-04   3.507e+00
   66  -1.207e+00   1.302e-04   3.929e+00
   67  -1.377e+00   5.975e-05   4.357e+00
   68  -1.548e+00   2.139e-05   4.787e+00

Element Stress

        S11         S22         S33         S12         S23         S13
Element     1
  7.865e+04   1.011e+04  -4.661e+01  -3.119e-06   3.834e-08   1.647e+02
  5.129e+04   6.539e+03  -1.438e+02  -2.035e-06   4.371e-08   1.628e+02
 -3.203e+02  -1.069e+02  -2.166e+02   1.412e-08   5.389e-08   1.592e+02
 -5.159e+04  -6.601e+03  -1.438e+02   2.055e-06   6.408e-08   1.557e+02
 -7.851e+04  -9.966e+03  -4.661e+01   3.129e-06   6.945e-08   1.538e+02
Element     2
  7.270e+04  -1.752e+03  -7.411e+01  -5.487e-06   1.094e-08   1.568e+02
  4.741e+04  -1.212e+03  -1.716e+02  -3.582e-06   1.702e-08   1.576e+02
 -2.802e+02  -6.226e+01  -2.447e+02   1.964e-08   2.856e-08   1.590e+02
 -4.765e+04   1.252e+03  -1.716e+02   3.610e-06   4.010e-08   1.604e+02
 -7.251e+04   2.012e+03  -7.411e+01   5.499e-06   4.619e-08   1.611e+02
Element     3
  6.678e+04   3.153e+02  -5.067e+01  -4.994e-06  -3.088e-08   1.563e+02
  4.357e+04   1.541e+02  -1.303e+02  -3.261e-06  -2.611e-08   1.562e+02
 -2.153e+02  -5.029e+01  -1.900e+02   1.556e-08  -1.707e-08   1.561e+02
 -4.374e+04  -1.224e+02  -1.303e+02   3.282e-06  -8.035e-09   1.559e+02
 -6.659e+04  -1.071e+02  -5.067e+01   5.002e-06  -3.266e-09   1.559e+02
Element     4
  6.098e+04  -4.034e+01  -4.753e+01  -5.022e-06  -1.161e-08   1.520e+02
  3.981e+04  -7.105e+01  -1.143e+02  -3.281e-06  -6.656e-09   1.523e+02
 -1.618e+02  -4.425e+01  -1.644e+02   1.253e-08   2.726e-09   1.527e+02
 -3.991e+04   9.383e+01  -1.143e+02   3.297e-06   1.211e-08   1.531e+02
 -6.079e+04   2.115e+02  -4.753e+01   5.026e-06   1.706e-08   1.534e+02
Element     5
  5.533e+04   2.413e+01  -3.657e+01  -4.815e-06  -1.979e-08   1.485e+02
  3.613e+04  -2.041e+01  -9.142e+01  -3.147e-06  -1.583e-08   1.486e+02
 -1.135e+02  -3.505e+01  -1.326e+02   9.094e-09  -8.305e-09   1.487e+02
 -3.618e+04   4.170e+01  -9.142e+01   3.157e-06  -7.840e-10   1.489e+02
 -5.513e+04   1.190e+02  -3.657e+01   4.815e-06   3.184e-09   1.489e+02
Element     6
  4.982e+04   1.272e+01  -3.081e+01  -4.532e-06  -2.020e-08   1.441e+02
  3.255e+04  -2.125e+01  -7.527e+01  -2.963e-06  -1.614e-08   1.442e+02
 -7.111e+01  -2.907e+01  -1.086e+02   5.615e-09  -8.459e-09   1.445e+02
 -3.255e+04   3.718e+01  -7.527e+01   2.968e-06  -7.762e-10   1.447e+02
 -4.962e+04   1.020e+02  -3.081e+01   4.528e-06   3.277e-09   1.449e+02
Element     7
  4.448e+04   1.392e+01  -2.394e+01  -4.150e-06  -2.040e-08   1.399e+02
  2.908e+04  -1.433e+01  -5.936e+01  -2.714e-06  -1.728e-08   1.400e+02
 -3.424e+01  -2.282e+01  -8.592e+01   2.184e-09  -1.137e-08   1.402e+02
 -2.903e+04   2.769e+01  -5.936e+01   2.713e-06  -5.463e-09   1.403e+02
 -4.428e+04   7.810e+01  -2.394e+01   4.141e-06  -2.346e-09   1.404e+02
Element     8
  3.931e+04   1.172e+01  -1.893e+01  -3.692e-06  -2.146e-08   1.357e+02
  2.571e+04  -1.067e+01  -4.656e+01  -2.416e-06  -1.847e-08   1.357e+02
 -2.501e+00  -1.796e+01  -6.728e+01  -9.966e-10  -1.281e-08   1.359e+02
 -2.562e+04   2.077e+01  -4.656e+01   2.410e-06  -7.147e-09   1.361e+02
 -3.910e+04   5.975e+01  -1.893e+01   3.680e-06  -4.160e-09   1.361e+02
Element     9
  3.428e+04   9.771e+00  -1.423e+01  -3.175e-06  -2.138e-08   1.317e+02
  2.243e+04  -7.515e+00  -3.523e+01  -2.079e-06  -1.895e-08   1.317e+02
  2.452e+01  -1.357e+01  -5.098e+01  -4.034e-09  -1.433e-08   1.319e+02
 -2.232e+04   1.535e+01  -3.523e+01   2.068e-06  -9.723e-09   1.320e+02
 -3.407e+04   4.470e+01  -1.423e+01   3.160e-06  -7.290e-09   1.320e+02
Element    10
  2.941e+04   7.457e+00  -1.049e+01  -2.624e-06  -2.141e-08   1.280e+02
  1.925e+04  -5.353e+00  -2.592e+01  -1.719e-06  -1.912e-08   1.280e+02
  4.722e+01  -1.001e+01  -3.750e+01  -6.461e-09  -1.479e-08   1.281e+02
 -1.911e+04   1.104e+01  -2.592e+01   1.704e-06  -1.045e-08   1.282e+02
 -2.919e+04   3.250e+01  -1.049e+01   2.606e-06  -8.166e-09   1.283e+02
Element    11
  2.466e+04   5.293e+00  -7.304e+00  -2.061e-06  -2.069e-08   1.247e+02
  1.616e+04  -3.717e+00  -1.814e+01  -1.352e-06  -1.868e-08   1.247e+02
  6.596e+01  -7.008e+00  -2.627e+01  -8.142e-09  -1.486e-08   1.248e+02
 -1.599e+04   7.751e+00  -1.814e+01   1.334e-06  -1.104e-08   1.249e+02
 -2.445e+04   2.281e+01  -7.304e+00   2.042e-06  -9.031e-09   1.250e+02
Element    12
  2.004e+04   3.060e+00  -4.787e+00  -1.516e-06  -1.886e-08   1.219e+02
  1.314e+04  -2.728e+00  -1.192e+01  -9.956e-07  -1.709e-08   1.219e+02
  8.105e+01  -4.622e+00  -1.728e+01  -1.010e-08  -1.374e-08   1.220e+02
 -1.295e+04   5.371e+00  -1.192e+01   9.745e-07  -1.038e-08   1.221e+02
 -1.982e+04   1.543e+01  -4.787e+00   1.494e-06  -8.615e-09   1.221e+02
Element    13
  1.551e+04   2.514e+00  -2.806e+00  -1.013e-06  -1.620e-08   1.196e+02
  1.018e+04  -1.175e+00  -7.065e+00  -6.671e-07  -1.482e-08   1.196e+02
  9.279e+01  -2.751e+00  -1.026e+01  -1.148e-08  -1.222e-08   1.197e+02
 -9.979e+03   2.767e+00  -7.065e+00   6.437e-07  -9.617e-09   1.197e+02
 -1.529e+04   8.536e+00  -2.806e+00   9.891e-07  -8.244e-09   1.197e+02
Element    14
  1.105e+04  -5.340e+00  -1.367e+00  -5.860e-07  -1.345e-08   1.178e+02
  7.268e+03  -4.924e+00  -3.520e+00  -3.878e-07  -1.217e-08   1.179e+02
  1.014e+02  -1.396e+00  -5.134e+00  -1.205e-08  -9.749e-09   1.179e+02
 -7.058e+03   5.718e+00  -3.520e+00   3.635e-07  -7.325e-09   1.179e+02
 -1.083e+04   1.092e+01  -1.367e+00   5.615e-07  -6.046e-09   1.180e+02
Element    15
  6.652e+03   3.249e+01  -4.194e-01  -2.678e-07  -9.498e-09   1.167e+02
  4.391e+03   2.077e+01  -1.184e+00  -1.798e-07  -8.281e-09   1.167e+02
  1.070e+02  -4.752e-01  -1.758e+00  -1.307e-08  -5.974e-09   1.167e+02
 -4.175e+03  -2.045e+01  -1.184e+00   1.536e-07  -3.667e-09   1.167e+02
 -6.432e+03  -3.048e+01  -4.194e-01   2.415e-07  -2.450e-09   1.167e+02
Element    16
  2.287e+03  -1.912e+02   5.620e-02  -8.991e-08  -6.152e-09   1.161e+02
  1.535e+03  -1.252e+02  -3.784e-02  -6.324e-08  -5.472e-09   1.161e+02
  1.098e+02  -7.007e-02  -1.084e-01  -1.269e-08  -4.184e-09   1.161e+02
 -1.315e+03   1.253e+02  -3.784e-02   3.785e-08  -2.896e-09   1.161e+02
 -2.067e+03   1.914e+02   5.620e-02   6.452e-08  -2.217e-09   1.161e+02



TIME =   5.000e-01

Nodal Displacements

 Node          U1          U2          U3
    1   0.000e+00   0.000e+00   0.000e+00
    2   4.562e-03   1.588e-03   3.512e-02
    3   1.348e-03   1.179e-03   1.386e-01
    4  -1.615e-02   1.121e-03   3.049e-01
    5  -5.206e-02   1.006e-03   5.265e-01
    6  -1.090e-01   9.052e-04   7.965e-01
    7  -1.883e-01   8.069e-04   1.108e+00
    8  -2.900e-01   7.131e-04   1.456e+00
    9  -4.137e-01   6.232e-04   1.834e+00
   10  -5.579e-01   5.370e-04   2.237e+00
   11  -7.208e-01   4.541e-04   2.661e+00
   12  -9.003e-01   3.742e-04   3.102e+00
   13  -1.094e+00   2.968e-04   3.556e+00
   14  -1.299e+00   2.213e-04   4.020e+00
   15  -1.513e+00   1.483e-04   4.492e+00
   16  -1.733e+00   7.030e-05   4.968e+00
   17  -1.956e+00   2.785e-05   5.447e+00
   18   0.000e+00   0.000e+00   0.000e+00
   19   4.562e-03  -1.588e-03   3.512e-02
   20   1.348e-03  -1.179e-03   1.386e-01
   21  -1.615e-02  -1.121e-03   3.049e-01
   22  -5.206e-02  -1.006e-03   5.265e-01
   23  -1.090e-01  -9.052e-04   7.965e-01
   24  -1.883e-01  -8.069e-04   1.108e+00
   25  -2.900e-01  -7.131e-04   1.456e+00
   26  -4.137e-01  -6.232e-04   1.834e+00
   27  -5.579e-01  -5.370e-04   2.237e+00
   28  -7.208e-01  -4.541e-04   2.661e+00
   29  -9.003e-01  -3.742e-04   3.102e+00
   30  -1.094e+00  -2.968e-04   3.556e+00
   31  -1.299e+00  -2.213e-04   4.020e+00
   32  -1.513e+00  -1.483e-04   4.492e+00
   33  -1.733e+00  -7.030e-05   4.968e+00
   34  -1.956e+00  -2.785e-05   5.447e+00
   35   0.000e+00   0.000e+00   0.000e+00
   36  -6.538e-03  -1.603e-03   3.445e-02
   37  -2.033e-02  -1.190e-03   1.362e-01
   38  -4.719e-02  -1.129e-03   2.999e-01
   39  -9.135e-02  -1.012e-03   5.184e-01
   40  -1.555e-01  -9.091e-04   7.851e-01
   41  -2.409e-01  -8.091e-04   1.093e+00
   42  -3.480e-01  -7.138e-04   1.437e+00
   43  -4.760e-01  -6.226e-04   1.812e+00
   44  -6.239e-01  -5.354e-04   2.212e+00
   45  -7.899e-01  -4.516e-04   2.633e+00
   46  -9.718e-01  -3.710e-04   3.071e+00
   47  -1.167e+00  -2.931e-04   3.524e+00
   48  -1.374e+00  -2.172e-04   3.986e+00
   49  -1.589e+00  -1.439e-04   4.457e+00
   50  -1.809e+00  -6.575e-05   4.933e+00
   51  -2.032e+00  -2.322e-05   5.411e+00
   52   0.000e+00   0.000e+00   0.000e+00
   53  -6.538e-03   1.603e-03   3.445e-02
   54  -2.033e-02   1.190e-03   1.362e-01
   55  -4.719e-02   1.129e-03   2.999e-01
   56  -9.135e-02   1.012e-03   5.184e-01
   57  -1.555e-01   9.091e-04   7.851e-01
   58  -2.409e-01   8.091e-04   1.093e+00
   59  -3.480e-01   7.138e-04   1.437e+00
   60  -4.760e-01   6.226e-04   1.812e+00
   61  -6.239e-01   5.354e-04   2.212e+00
   62  -7.899e-01   4.516e-04   2.633e+00
   63  -9.718e-01   3.710e-04   3.071e+00
   64  -1.167e+00   2.931e-04   3.524e+00
   65  -1.374e+00   2.172e-04   3.986e+00
   66  -1.589e+00   1.439e-04   4.457e+00
   67  -1.809e+00   6.575e-05   4.933e+00
   68  -2.032e+00   2.322e-05   5.411e+00

Element Stress

        S11         S22         S33         S12         S23         S13
Element     1
  9.259e+04   1.190e+04  -6.438e+01  -1.566e-05   1.787e-07   2.063e+02
  6.034e+04   7.681e+03  -1.990e+02  -1.021e-05   2.118e-07   2.037e+02
 -4.432e+02  -1.484e+02  -3.000e+02   8.311e-08   2.746e-07   1.987e+02
 -6.077e+04  -7.767e+03  -1.990e+02   1.033e-05   3.374e-07   1.938e+02
 -9.240e+04  -1.170e+04  -6.438e+01   1.572e-05   3.705e-07   1.912e+02
Element     2
  8.518e+04  -2.103e+03  -1.018e+02  -2.780e-05   4.373e-08   1.952e+02
  5.551e+04  -1.466e+03  -2.357e+02  -1.814e-05   8.124e-08   1.962e+02
 -3.825e+02  -8.551e+01  -3.361e+02   1.159e-07   1.523e-07   1.982e+02
 -5.584e+04   1.521e+03  -2.357e+02   1.830e-05   2.234e-07   2.002e+02
 -8.491e+04   2.460e+03  -1.018e+02   2.787e-05   2.610e-07   2.012e+02
Element     3
  7.782e+04   3.545e+02  -6.853e+01  -2.562e-05  -1.641e-07   1.935e+02
  5.075e+04   1.611e+02  -1.766e+02  -1.673e-05  -1.347e-07   1.934e+02
 -2.885e+02  -6.831e+01  -2.577e+02   9.155e-08  -7.883e-08   1.933e+02
 -5.096e+04  -1.180e+02  -1.766e+02   1.685e-05  -2.300e-08   1.931e+02
 -7.755e+04  -7.177e+01  -6.853e+01   2.567e-05   6.446e-09   1.930e+02
Element     4
  7.067e+04  -6.251e+01  -6.380e+01  -2.591e-05  -7.174e-08   1.866e+02
  4.611e+04  -1.009e+02  -1.534e+02  -1.692e-05  -4.107e-08   1.869e+02
 -2.117e+02  -5.949e+01  -2.206e+02   7.260e-08   1.708e-08   1.875e+02
 -4.623e+04   1.314e+02  -1.534e+02   1.701e-05   7.522e-08   1.882e+02
 -7.039e+04   2.922e+02  -6.380e+01   2.593e-05   1.059e-07   1.885e+02
Element     5
  6.375e+04   1.856e+01  -4.839e+01  -2.492e-05  -1.122e-07   1.806e+02
  4.162e+04  -3.590e+01  -1.212e+02  -1.628e-05  -8.770e-08   1.807e+02
 -1.434e+02  -4.650e+01  -1.758e+02   5.043e-08  -4.133e-08   1.809e+02
 -4.166e+04   6.420e+01  -1.212e+02   1.634e-05   5.037e-09   1.811e+02
 -6.347e+04   1.715e+02  -4.839e+01   2.491e-05   2.950e-08   1.812e+02
Element     6
  5.709e+04   7.724e+00  -4.040e+01  -2.346e-05  -1.133e-07   1.733e+02
  3.729e+04  -3.377e+01  -9.874e+01  -1.534e-05  -8.878e-08   1.735e+02
 -8.456e+01  -3.818e+01  -1.425e+02   2.810e-08  -4.238e-08   1.738e+02
 -3.727e+04   5.462e+01  -9.874e+01   1.536e-05   4.023e-09   1.742e+02
 -5.681e+04   1.427e+02  -4.040e+01   2.342e-05   2.850e-08   1.744e+02
Element     7
  5.070e+04   1.126e+01  -3.100e+01  -2.145e-05  -1.160e-07   1.664e+02
  3.314e+04  -2.305e+01  -7.697e+01  -1.403e-05  -9.622e-08   1.665e+02
 -3.415e+01  -2.962e+01  -1.114e+02   6.180e-09  -5.865e-08   1.667e+02
 -3.305e+04   4.041e+01  -7.697e+01   1.401e-05  -2.109e-08   1.669e+02
 -5.041e+04   1.082e+02  -3.100e+01   2.139e-05  -1.271e-09   1.670e+02
Element     8
  4.457e+04   1.001e+01  -2.428e+01  -1.904e-05  -1.227e-07   1.595e+02
  2.915e+04  -1.701e+01  -5.978e+01  -1.247e-05  -1.032e-07   1.596e+02
  8.536e+00  -2.308e+01  -8.639e+01  -1.473e-08  -6.617e-08   1.598e+02
 -2.902e+04   2.997e+01  -5.978e+01   1.241e-05  -2.919e-08   1.600e+02
 -4.428e+04   8.178e+01  -2.428e+01   1.896e-05  -9.684e-09   1.602e+02
Element     9
  3.870e+04   8.697e+00  -1.807e+01  -1.633e-05  -1.172e-07   1.531e+02
  2.533e+04  -1.201e+01  -4.479e+01  -1.070e-05  -1.012e-07   1.532e+02
  4.429e+01  -1.726e+01  -6.482e+01  -3.230e-08  -7.086e-08   1.533e+02
 -2.515e+04   2.199e+01  -4.479e+01   1.062e-05  -4.051e-08   1.535e+02
 -3.840e+04   6.063e+01  -1.807e+01   1.622e-05  -2.451e-08   1.536e+02
Element    10
  3.306e+04   6.632e+00  -1.321e+01  -1.346e-05  -1.177e-07   1.472e+02
  2.165e+04  -8.572e+00  -3.268e+01  -8.825e-06  -1.023e-07   1.473e+02
  7.385e+01  -1.263e+01  -4.728e+01  -4.904e-08  -7.295e-08   1.474e+02
 -2.144e+04   1.575e+01  -3.268e+01   8.714e-06  -4.365e-08   1.476e+02
 -3.276e+04   4.378e+01  -1.321e+01   1.333e-05  -2.819e-08   1.476e+02
Element    11
  2.762e+04   4.572e+00  -9.127e+00  -1.055e-05  -1.086e-07   1.420e+02
  1.811e+04  -5.997e+00  -2.270e+01  -6.927e-06  -9.601e-08   1.421e+02
  9.790e+01  -8.773e+00  -3.287e+01  -6.330e-08  -7.208e-08   1.422e+02
 -1.787e+04   1.105e+01  -2.270e+01   6.792e-06  -4.815e-08   1.423e+02
 -2.732e+04   3.061e+01  -9.127e+00   1.040e-05  -3.552e-08   1.424e+02
Element    12
  2.238e+04   2.331e+00  -5.945e+00  -7.744e-06  -9.840e-08   1.376e+02
  1.468e+04  -4.359e+00  -1.482e+01  -5.094e-06  -8.738e-08   1.377e+02
  1.170e+02  -5.750e+00  -2.148e+01  -7.443e-08  -6.649e-08   1.378e+02
 -1.442e+04   7.646e+00  -1.482e+01   4.940e-06  -4.560e-08   1.378e+02
 -2.207e+04   2.067e+01  -5.945e+00   7.583e-06  -3.458e-08   1.379e+02
Element    13
  1.728e+04   1.922e+00  -3.465e+00  -5.175e-06  -8.276e-08   1.340e+02
  1.135e+04  -2.233e+00  -8.735e+00  -3.415e-06  -7.413e-08   1.341e+02
  1.317e+02  -3.403e+00  -1.269e+01  -8.219e-08  -5.777e-08   1.341e+02
 -1.107e+04   4.203e+00  -8.735e+00   3.248e-06  -4.140e-08   1.342e+02
 -1.697e+04   1.175e+01  -3.465e+00   5.004e-06  -3.277e-08   1.342e+02
Element    14
  1.230e+04  -6.587e+00  -1.682e+00  -3.002e-06  -6.346e-08   1.313e+02
  8.098e+03  -6.072e+00  -4.335e+00  -1.995e-06  -5.686e-08   1.314e+02
  1.424e+02  -1.720e+00  -6.325e+00  -8.688e-08  -4.434e-08   1.314e+02
 -7.804e+03   7.051e+00  -4.335e+00   1.820e-06  -3.183e-08   1.314e+02
 -1.199e+04   1.346e+01  -1.682e+00   2.826e-06  -2.523e-08   1.315e+02
Element    15
  7.406e+03   3.553e+01  -5.143e-01  -1.382e-06  -3.774e-08   1.295e+02
  4.899e+03   2.265e+01  -1.454e+00  -9.364e-07  -3.319e-08   1.295e+02
  1.494e+02  -5.842e-01  -2.160e+00  -9.187e-08  -2.454e-08   1.296e+02
 -4.597e+03  -2.226e+01  -1.454e+00   7.524e-07  -1.590e-08   1.296e+02
 -7.099e+03  -3.306e+01  -5.143e-01   1.198e-06  -1.134e-08   1.296e+02
Element    16
  2.565e+03  -2.119e+02   6.904e-02  -4.764e-07  -1.732e-08   1.286e+02
  1.732e+03  -1.388e+02  -4.638e-02  -3.437e-07  -1.553e-08   1.286e+02
  1.528e+02  -8.620e-02  -1.329e-01  -9.224e-08  -1.212e-08   1.286e+02
 -1.426e+03   1.389e+02  -4.638e-02   1.592e-07  -8.715e-09   1.286e+02
 -2.258e+03   2.122e+02   6.904e-02   2.918e-07  -6.917e-09   1.286e+02



TIME =   6.000e-01

Nodal Displacements

 Node          U1          U2          U3
    1   0.000e+00   0.000e+00   0.000e+00
    2   5.015e-03   1.799e-03   3.982e-02
    3   8.418e-05   1.325e-03   1.569e-01
    4  -2.292e-02   1.253e-03   3.440e-01
    5  -6.897e-02   1.118e-03   5.922e-01
    6  -1.411e-01   1.000e-03   8.930e-01
    7  -2.405e-01   8.864e-04   1.238e+00
    8  -3.672e-01   7.791e-04   1.621e+00
    9  -5.202e-01   6.774e-04   2.036e+00
   10  -6.975e-01   5.810e-04   2.475e+00
   11  -8.968e-01   4.894e-04   2.936e+00
   12  -1.115e+00   4.020e-04   3.413e+00
   13  -1.350e+00   3.180e-04   3.904e+00
   14  -1.599e+00   2.367e-04   4.404e+00
   15  -1.857e+00   1.585e-04   4.911e+00
   16  -2.122e+00   7.533e-05   5.422e+00
   17  -2.391e+00   3.014e-05   5.936e+00
   18   0.000e+00   0.000e+00   0.000e+00
   19   5.015e-03  -1.799e-03   3.982e-02
   20   8.418e-05  -1.325e-03   1.569e-01
   21  -2.292e-02  -1.253e-03   3.440e-01
   22  -6.897e-02  -1.118e-03   5.922e-01
   23  -1.411e-01  -1.000e-03   8.930e-01
   24  -2.405e-01  -8.864e-04   1.238e+00
   25  -3.672e-01  -7.791e-04   1.621e+00
   26  -5.202e-01  -6.774e-04   2.036e+00
   27  -6.975e-01  -5.810e-04   2.475e+00
   28  -8.968e-01  -4.894e-04   2.936e+00
   29  -1.115e+00  -4.020e-04   3.413e+00
   30  -1.350e+00  -3.180e-04   3.904e+00
   31  -1.599e+00  -2.366e-04   4.404e+00
   32  -1.857e+00  -1.585e-04   4.911e+00
   33  -2.122e+00  -7.532e-05   5.422e+00
   34  -2.391e+00  -3.013e-05   5.936e+00
   35   0.000e+00   0.000e+00   0.000e+00
   36  -7.549e-03  -1.818e-03   3.896e-02
   37  -2.435e-02  -1.339e-03   1.538e-01
   38  -5.773e-02  -1.263e-03   3.377e-01
   39  -1.128e-01  -1.125e-03   5.820e-01
   40  -1.927e-01  -1.004e-03   8.786e-01
   41  -2.987e-01  -8.886e-04   1.220e+00
   42  -4.309e-01  -7.794e-04   1.599e+00
   43  -5.883e-01  -6.762e-04   2.009e+00
   44  -7.694e-01  -5.786e-04   2.445e+00
   45  -9.717e-01  -4.860e-04   2.902e+00
   46  -1.193e+00  -3.977e-04   3.377e+00
   47  -1.430e+00  -3.131e-04   3.865e+00
   48  -1.679e+00  -2.313e-04   4.363e+00
   49  -1.938e+00  -1.528e-04   4.869e+00
   50  -2.204e+00  -6.945e-05   5.380e+00
   51  -2.473e+00  -2.418e-05   5.893e+00
   52   0.000e+00   0.000e+00   0.000e+00
   53  -7.549e-03   1.818e-03   3.896e-02
   54  -2.435e-02   1.339e-03   1.538e-01
   55  -5.773e-02   1.263e-03   3.377e-01
   56  -1.128e-01   1.125e-03   5.820e-01
   57  -1.927e-01   1.004e-03   8.786e-01
   58  -2.987e-01   8.886e-04   1.220e+00
   59  -4.309e-01   7.794e-04   1.599e+00
   60  -5.883e-01   6.762e-04   2.009e+00
   61  -7.694e-01   5.786e-04   2.445e+00
   62  -9.717e-01   4.860e-04   2.902e+00
   63  -1.193e+00   3.977e-04   3.377e+00
   64  -1.430e+00   3.131e-04   3.865e+00
   65  -1.679e+00   2.313e-04   4.363e+00
   66  -1.938e+00   1.528e-04   4.869e+00
   67  -2.204e+00   6.946e-05   5.380e+00
   68  -2.473e+00   2.419e-05   5.893e+00

Element Stress

        S11         S22         S33         S12         S23         S13
Element     1
  1.049e+05   1.347e+04  -8.227e+01  -1.018e-04   1.070e-06   2.478e+02
  6.830e+04   8.679e+03  -2.550e+02  -6.636e-05   1.325e-06   2.445e+02
 -5.675e+02  -1.906e+02  -3.845e+02   6.103e-07   1.808e-06   2.382e+02
 -6.884e+04  -8.790e+03  -2.550e+02   6.724e-05   2.292e-06   2.319e+02
 -1.046e+05  -1.322e+04  -8.227e+01   1.022e-04   2.547e-06   2.285e+02
Element     2
  9.599e+04  -2.431e+03  -1.294e+02  -1.825e-04   2.340e-07   2.332e+02
  6.252e+04  -1.705e+03  -2.995e+02  -1.191e-04   5.254e-07   2.346e+02
 -4.829e+02  -1.087e+02  -4.271e+02   8.512e-07   1.078e-06   2.372e+02
 -6.292e+04   1.775e+03  -2.995e+02   1.203e-04   1.630e-06   2.398e+02
 -9.564e+04   2.885e+03  -1.294e+02   1.830e-04   1.921e-06   2.412e+02
Element     3
  8.720e+04   3.807e+02  -8.569e+01  -1.724e-04  -1.070e-06   2.300e+02
  5.684e+04   1.601e+02  -2.214e+02  -1.125e-04  -8.403e-07   2.299e+02
 -3.572e+02  -8.578e+01  -3.232e+02   6.819e-07  -4.051e-07   2.297e+02
 -5.710e+04  -1.059e+02  -2.214e+02   1.134e-04   3.013e-08   2.295e+02
 -8.685e+04  -2.560e+01  -8.569e+01   1.727e-04   2.597e-07   2.294e+02
Element     4
  7.873e+04  -8.893e+01  -7.918e+01  -1.773e-04  -5.205e-07   2.198e+02
  5.135e+04  -1.327e+02  -1.904e+02  -1.158e-04  -2.817e-07   2.203e+02
 -2.554e+02  -7.392e+01  -2.738e+02   5.413e-07   1.710e-07   2.211e+02
 -5.149e+04   1.703e+02  -1.904e+02   1.164e-04   6.237e-07   2.219e+02
 -7.837e+04   3.739e+02  -7.918e+01   1.774e-04   8.625e-07   2.223e+02
Element     5
  7.061e+04   9.184e+00  -5.915e+01  -1.722e-04  -7.962e-07   2.108e+02
  4.609e+04  -5.291e+01  -1.484e+02  -1.125e-04  -6.046e-07   2.109e+02
 -1.664e+02  -5.700e+01  -2.154e+02   3.689e-07  -2.414e-07   2.112e+02
 -4.612e+04   8.768e+01  -1.484e+02   1.129e-04   1.219e-07   2.114e+02
 -7.025e+04   2.239e+02  -5.915e+01   1.721e-04   3.135e-07   2.116e+02
Element     6
  6.287e+04   1.027e-01  -4.893e+01  -1.633e-04  -8.236e-07   2.002e+02
  4.107e+04  -4.701e+01  -1.196e+02  -1.067e-04  -6.319e-07   2.004e+02
 -9.091e+01  -4.632e+01  -1.727e+02   1.920e-07  -2.683e-07   2.008e+02
 -4.101e+04   7.222e+01  -1.196e+02   1.068e-04   9.519e-08   2.013e+02
 -6.250e+04   1.822e+02  -4.893e+01   1.629e-04   2.870e-07   2.015e+02
Element     7
  5.553e+04   6.601e+00  -3.706e+01  -1.499e-04  -8.433e-07   1.901e+02
  3.629e+04  -3.215e+01  -9.216e+01  -9.804e-05  -6.870e-07   1.902e+02
 -2.730e+01  -3.549e+01  -1.335e+02   1.640e-08  -3.906e-07   1.905e+02
 -3.616e+04   5.297e+01  -9.216e+01   9.783e-05  -9.424e-08   1.907e+02
 -5.515e+04   1.366e+02  -3.706e+01   1.493e-04   6.211e-08   1.909e+02
Element     8
  4.856e+04   6.750e+00  -2.876e+01  -1.333e-04  -8.906e-07   1.802e+02
  3.176e+04  -2.354e+01  -7.086e+01  -8.728e-05  -7.378e-07   1.803e+02
  2.567e+01  -2.738e+01  -1.024e+02  -1.489e-07  -4.483e-07   1.806e+02
 -3.157e+04   3.889e+01  -7.086e+01   8.679e-05  -1.588e-07   1.808e+02
 -4.819e+04   1.021e+02  -2.876e+01   1.326e-04  -6.126e-09   1.809e+02
Element     9
  4.196e+04   6.385e+00  -2.117e+01  -1.145e-04  -8.537e-07   1.710e+02
  2.747e+04  -1.661e+01  -5.255e+01  -7.501e-05  -7.275e-07   1.711e+02
  6.932e+01  -2.027e+01  -7.608e+01  -2.975e-07  -4.884e-07   1.713e+02
 -2.723e+04   2.834e+01  -5.255e+01   7.427e-05  -2.493e-07   1.715e+02
 -4.158e+04   7.504e+01  -2.117e+01   1.136e-04  -1.231e-07   1.716e+02
Element    10
  3.569e+04   4.829e+00  -1.536e+01  -9.441e-05  -8.463e-07   1.627e+02
  2.338e+04  -1.187e+01  -3.802e+01  -6.193e-05  -7.264e-07   1.628e+02
  1.049e+02  -1.470e+01  -5.502e+01  -4.280e-07  -4.991e-07   1.630e+02
 -2.310e+04   2.022e+01  -3.802e+01   6.097e-05  -2.718e-07   1.631e+02
 -3.531e+04   5.385e+01  -1.536e+01   9.332e-05  -1.518e-07   1.632e+02
Element    11
  2.972e+04   3.099e+00  -1.052e+01  -7.404e-05  -7.691e-07   1.554e+02
  1.949e+04  -8.357e+00  -2.619e+01  -4.864e-05  -6.704e-07   1.555e+02
  1.333e+02  -1.013e+01  -3.795e+01  -5.366e-07  -4.833e-07   1.556e+02
 -1.917e+04   1.420e+01  -2.619e+01   4.751e-05  -2.963e-07   1.558e+02
 -2.933e+04   3.755e+01  -1.052e+01   7.282e-05  -1.976e-07   1.558e+02
Element    12
  2.400e+04   1.057e+00  -6.810e+00  -5.441e-05  -7.005e-07   1.493e+02
  1.576e+04  -6.062e+00  -1.700e+01  -3.582e-05  -6.115e-07   1.493e+02
  1.557e+02  -6.598e+00  -2.464e+01  -6.221e-07  -4.427e-07   1.494e+02
 -1.541e+04   9.832e+00  -1.700e+01   3.454e-05  -2.740e-07   1.495e+02
 -2.361e+04   2.534e+01  -6.810e+00   5.307e-05  -1.849e-07   1.496e+02
Element    13
  1.849e+04   9.223e-01  -3.947e+00  -3.643e-05  -5.753e-07   1.443e+02
  1.216e+04  -3.380e+00  -9.962e+00  -2.408e-05  -5.060e-07   1.444e+02
  1.727e+02  -3.884e+00  -1.447e+01  -6.866e-07  -3.746e-07   1.444e+02
 -1.179e+04   5.630e+00  -9.962e+00   2.269e-05  -2.431e-07   1.445e+02
 -1.810e+04   1.468e+01  -3.947e+00   3.501e-05  -1.738e-07   1.445e+02
Element    14
  1.314e+04  -7.839e+00  -1.909e+00  -2.121e-05  -4.408e-07   1.406e+02
  8.667e+03  -7.132e+00  -4.924e+00  -1.413e-05  -3.860e-07   1.406e+02
  1.850e+02  -1.956e+00  -7.186e+00  -7.271e-07  -2.822e-07   1.406e+02
 -8.287e+03   8.245e+00  -4.924e+00   1.267e-05  -1.784e-07   1.407e+02
 -1.275e+04   1.565e+01  -1.909e+00   1.973e-05  -1.236e-07   1.407e+02
Element    15
  7.918e+03   3.726e+01  -5.816e-01  -9.824e-06  -2.370e-07   1.381e+02
  5.249e+03   2.370e+01  -1.647e+00  -6.690e-06  -2.041e-07   1.381e+02
  1.929e+02  -6.624e-01  -2.447e+00  -7.497e-07  -1.417e-07   1.381e+02
 -4.860e+03  -2.325e+01  -1.647e+00   5.188e-06  -7.937e-08   1.381e+02
 -7.524e+03  -3.446e+01  -5.816e-01   8.320e-06  -4.646e-08   1.382e+02
Element    16
  2.763e+03  -2.256e+02   7.822e-02  -3.459e-06  -8.829e-08   1.368e+02
  1.877e+03  -1.478e+02  -5.243e-02  -2.527e-06  -7.651e-08   1.368e+02
  1.968e+02  -9.779e-02  -1.504e-01  -7.596e-07  -5.417e-08   1.368e+02
 -1.483e+03   1.478e+02  -5.243e-02   1.008e-06  -3.183e-08   1.369e+02
 -2.369e+03   2.260e+02   7.822e-02   1.940e-06  -2.005e-08   1.369e+02



TIME =   7.000e-01

Nodal Displacements

 Node          U1          U2          U3
    1   0.000e+00   0.000e+00   0.000e+00
    2   5.388e-03   1.987e-03   4.403e-02
    3  -1.321e-03   1.453e-03   1.731e-01
    4  -2.978e-02   1.367e-03   3.785e-01
    5  -8.570e-02   1.211e-03   6.495e-01
    6  -1.723e-01   1.077e-03   9.762e-01
    7  -2.908e-01   9.491e-04   1.350e+00
    8  -4.407e-01   8.297e-04   1.761e+00
    9  -6.205e-01   7.178e-04   2.205e+00
   10  -8.279e-01   6.129e-04   2.673e+00
   11  -1.060e+00   5.142e-04   3.162e+00
   12  -1.313e+00   4.209e-04   3.667e+00
   13  -1.585e+00   3.321e-04   4.185e+00
   14  -1.871e+00   2.467e-04   4.711e+00
   15  -2.168e+00   1.651e-04   5.244e+00
   16  -2.472e+00   7.869e-05   5.781e+00
   17  -2.780e+00   3.180e-05   6.320e+00
   18   0.000e+00   0.000e+00   0.000e+00
   19   5.388e-03  -1.987e-03   4.403e-02
   20  -1.321e-03  -1.453e-03   1.731e-01
   21  -2.978e-02  -1.367e-03   3.785e-01
   22  -8.570e-02  -1.211e-03   6.495e-01
   23  -1.723e-01  -1.077e-03   9.762e-01
   24  -2.908e-01  -9.491e-04   1.350e+00
   25  -4.407e-01  -8.297e-04   1.761e+00
   26  -6.205e-01  -7.178e-04   2.205e+00
   27  -8.279e-01  -6.129e-04   2.673e+00
   28  -1.060e+00  -5.142e-04   3.162e+00
   29  -1.313e+00  -4.209e-04   3.667e+00
   30  -1.585e+00  -3.321e-04   4.185e+00
   31  -1.871e+00  -2.467e-04   4.711e+00
   32  -2.168e+00  -1.651e-04   5.244e+00
   33  -2.472e+00  -7.869e-05   5.781e+00
   34  -2.780e+00  -3.180e-05   6.320e+00
   35   0.000e+00   0.000e+00   0.000e+00
   36  -8.479e-03  -2.010e-03   4.298e-02
   37  -2.819e-02  -1.469e-03   1.693e-01
   38  -6.787e-02  -1.378e-03   3.709e-01
   39  -1.334e-01  -1.219e-03   6.373e-01
   40  -2.282e-01  -1.082e-03   9.591e-01
   41  -3.535e-01  -9.512e-04   1.327e+00
   42  -5.090e-01  -8.295e-04   1.734e+00
   43  -6.933e-01  -7.159e-04   2.173e+00
   44  -9.044e-01  -6.095e-04   2.638e+00
   45  -1.139e+00  -5.097e-04   3.123e+00
   46  -1.395e+00  -4.154e-04   3.625e+00
   47  -1.668e+00  -3.259e-04   4.140e+00
   48  -1.956e+00  -2.400e-04   4.664e+00
   49  -2.254e+00  -1.581e-04   5.196e+00
   50  -2.558e+00  -7.150e-05   5.732e+00
   51  -2.867e+00  -2.452e-05   6.271e+00
   52   0.000e+00   0.000e+00   0.000e+00
   53  -8.479e-03   2.010e-03   4.298e-02
   54  -2.819e-02   1.469e-03   1.693e-01
   55  -6.787e-02   1.378e-03   3.709e-01
   56  -1.334e-01   1.219e-03   6.373e-01
   57  -2.282e-01   1.082e-03   9.591e-01
   58  -3.535e-01   9.512e-04   1.327e+00
   59  -5.090e-01   8.295e-04   1.734e+00
   60  -6.933e-01   7.159e-04   2.173e+00
   61  -9.044e-01   6.095e-04   2.638e+00
   62  -1.139e+00   5.097e-04   3.123e+00
   63  -1.395e+00   4.154e-04   3.625e+00
   64  -1.668e+00   3.259e-04   4.140e+00
   65  -1.956e+00   2.400e-04   4.664e+00
   66  -2.254e+00   1.581e-04   5.196e+00
   67  -2.558e+00   7.150e-05   5.732e+00
   68  -2.867e+00   2.452e-05   6.271e+00

Element Stress

        S11         S22         S33         S12         S23         S13
Element     1
  1.158e+05   1.486e+04  -9.996e+01  -1.027e-05   1.014e-07   2.893e+02
  7.539e+04   9.564e+03  -3.106e+02  -6.688e-06   1.305e-07   2.853e+02
 -6.910e+02  -2.329e+02  -4.685e+02   6.743e-08   1.858e-07   2.776e+02
 -7.605e+04  -9.701e+03  -3.106e+02   6.784e-06   2.412e-07   2.698e+02
 -1.155e+05  -1.456e+04  -9.996e+01   1.031e-05   2.703e-07   2.658e+02
Element     2
  1.055e+05  -2.741e+03  -1.564e+02  -1.854e-05   1.480e-08   2.711e+02
  6.867e+04  -1.932e+03  -3.619e+02  -1.209e-05   4.760e-08   2.728e+02
 -5.797e+02  -1.313e+02  -5.161e+02   9.521e-08   1.098e-07   2.760e+02
 -6.915e+04   2.017e+03  -3.619e+02   1.222e-05   1.719e-07   2.792e+02
 -1.050e+05   3.290e+03  -1.564e+02   1.860e-05   2.047e-07   2.809e+02
Element     3
  9.527e+04   3.969e+02  -1.019e+02  -1.736e-05  -1.232e-07   2.658e+02
  6.208e+04   1.534e+02  -2.639e+02  -1.133e-05  -9.743e-08   2.657e+02
 -4.201e+02  -1.024e+02  -3.854e+02   7.441e-08  -4.856e-08   2.655e+02
 -6.238e+04  -8.874e+01  -2.639e+02   1.143e-05   3.041e-10   2.652e+02
 -9.485e+04   2.705e+01  -1.019e+02   1.740e-05   2.608e-08   2.651e+02
Element     4
  8.552e+04  -1.181e+02  -9.342e+01  -1.754e-05  -6.825e-08   2.519e+02
  5.577e+04  -1.652e+02  -2.246e+02  -1.145e-05  -4.127e-08   2.524e+02
 -2.924e+02  -8.731e+01  -3.230e+02   5.741e-08   9.872e-09   2.535e+02
 -5.591e+04   2.095e+02  -2.246e+02   1.152e-05   6.102e-08   2.545e+02
 -8.508e+04   4.542e+02  -9.342e+01   1.755e-05   8.800e-08   2.550e+02
Element     5
  7.625e+04  -2.622e+00  -6.872e+01  -1.683e-05  -9.173e-08   2.394e+02
  4.976e+04  -7.040e+01  -1.728e+02  -1.100e-05  -7.015e-08   2.395e+02
 -1.824e+02  -6.641e+01  -2.508e+02   3.805e-08  -2.925e-08   2.398e+02
 -4.978e+04   1.110e+02  -1.728e+02   1.104e-05   1.164e-08   2.402e+02
 -7.580e+04   2.745e+02  -6.872e+01   1.682e-05   3.322e-08   2.403e+02
Element     6
  6.750e+04  -9.099e+00  -5.633e+01  -1.575e-05  -9.437e-08   2.250e+02
  4.409e+04  -6.022e+01  -1.378e+02  -1.030e-05  -7.269e-08   2.252e+02
 -9.045e+01  -5.341e+01  -1.989e+02   1.940e-08  -3.161e-08   2.258e+02
 -4.400e+04   8.919e+01  -1.378e+02   1.031e-05   9.471e-09   2.263e+02
 -6.705e+04   2.191e+02  -5.633e+01   1.572e-05   3.114e-08   2.265e+02
Element     7
  5.929e+04   7.427e-01  -4.211e+01  -1.430e-05  -9.299e-08   2.114e+02
  3.875e+04  -4.106e+01  -1.049e+02  -9.356e-06  -7.537e-08   2.115e+02
 -1.429e+01  -4.041e+01  -1.519e+02   1.470e-09  -4.197e-08   2.118e+02
 -3.857e+04   6.481e+01  -1.049e+02   9.334e-06  -8.564e-09   2.121e+02
 -5.883e+04   1.625e+02  -4.211e+01   1.425e-05   9.056e-09   2.123e+02
Element     8
  5.159e+04   2.541e+00  -3.238e+01  -1.260e-05  -9.708e-08   1.981e+02
  3.375e+04  -2.985e+01  -7.982e+01  -8.247e-06  -7.968e-08   1.983e+02
  4.811e+01  -3.088e+01  -1.154e+02  -1.455e-08  -4.670e-08   1.986e+02
 -3.349e+04   4.714e+01  -7.982e+01   8.199e-06  -1.371e-08   1.989e+02
 -5.112e+04   1.201e+02  -3.238e+01   1.252e-05   3.687e-09   1.991e+02
Element     9
  4.436e+04   3.303e+00  -2.357e+01  -1.072e-05  -9.105e-08   1.861e+02
  2.905e+04  -2.104e+01  -5.860e+01  -7.027e-06  -7.680e-08   1.862e+02
  9.870e+01  -2.262e+01  -8.486e+01  -2.873e-08  -4.977e-08   1.864e+02
 -2.873e+04   3.414e+01  -5.860e+01   6.956e-06  -2.275e-08   1.866e+02
 -4.389e+04   8.759e+01  -2.357e+01   1.064e-05  -8.490e-09   1.867e+02
Element    10
  3.757e+04   2.402e+00  -1.696e+01  -8.782e-06  -8.957e-08   1.752e+02
  2.462e+04  -1.506e+01  -4.203e+01  -5.760e-06  -7.592e-08   1.753e+02
  1.393e+02  -1.627e+01  -6.083e+01  -3.971e-08  -5.003e-08   1.755e+02
 -2.426e+04   2.429e+01  -4.203e+01   5.671e-06  -2.414e-08   1.757e+02
 -3.710e+04   6.251e+01  -1.696e+01   8.680e-06  -1.048e-08   1.758e+02
Element    11
  3.117e+04   1.136e+00  -1.152e+01  -6.849e-06  -8.288e-08   1.658e+02
  2.045e+04  -1.066e+01  -2.873e+01  -4.500e-06  -7.127e-08   1.658e+02
  1.713e+02  -1.112e+01  -4.163e+01  -5.041e-08  -4.926e-08   1.660e+02
 -2.005e+04   1.707e+01  -2.873e+01   4.393e-06  -2.725e-08   1.661e+02
 -3.069e+04   4.349e+01  -1.152e+01   6.734e-06  -1.564e-08   1.662e+02
Element    12
  2.510e+04  -5.684e-01  -7.414e+00  -5.011e-06  -7.447e-08   1.578e+02
  1.649e+04  -7.737e+00  -1.852e+01  -3.299e-06  -6.425e-08   1.579e+02
  1.962e+02  -7.196e+00  -2.685e+01  -5.693e-08  -4.488e-08   1.580e+02
 -1.606e+04   1.185e+01  -1.852e+01   3.182e-06  -2.551e-08   1.581e+02
 -2.462e+04   2.935e+01  -7.414e+00   4.889e-06  -1.529e-08   1.582e+02
Element    13
  1.929e+04  -3.382e-01  -4.272e+00  -3.345e-06  -6.127e-08   1.515e+02
  1.270e+04  -4.542e+00  -1.080e+01  -2.211e-06  -5.314e-08   1.515e+02
  2.149e+02  -4.212e+00  -1.569e+01  -6.110e-08  -3.773e-08   1.516e+02
 -1.225e+04   6.982e+00  -1.080e+01   2.087e-06  -2.232e-08   1.517e+02
 -1.881e+04   1.727e+01  -4.272e+00   3.219e-06  -1.419e-08   1.517e+02
Element    14
  1.370e+04  -9.068e+00  -2.058e+00  -1.944e-06  -4.739e-08   1.467e+02
  9.043e+03  -8.097e+00  -5.315e+00  -1.294e-06  -4.139e-08   1.467e+02
  2.282e+02  -2.113e+00  -7.757e+00  -6.442e-08  -3.002e-08   1.468e+02
 -8.575e+03   9.298e+00  -5.315e+00   1.165e-06  -1.864e-08   1.468e+02
 -1.322e+04   1.750e+01  -2.058e+00   1.813e-06  -1.264e-08   1.468e+02
Element    15
  8.254e+03   3.805e+01  -6.249e-01  -8.991e-07  -2.795e-08   1.435e+02
  5.484e+03   2.416e+01  -1.773e+00  -6.115e-07  -2.437e-08   1.435e+02
  2.368e+02  -7.137e-01  -2.634e+00  -6.644e-08  -1.759e-08   1.435e+02
 -5.007e+03  -2.368e+01  -1.773e+00   4.784e-07  -1.081e-08   1.436e+02
 -7.772e+03  -3.503e+01  -6.249e-01   7.657e-07  -7.233e-09   1.436e+02
Element    16
  2.902e+03  -2.341e+02   8.419e-02  -3.117e-07  -1.382e-08   1.419e+02
  1.983e+03  -1.534e+02  -5.633e-02  -2.262e-07  -1.240e-08   1.419e+02
  2.409e+02  -1.054e-01  -1.617e-01  -6.407e-08  -9.705e-09   1.419e+02
 -1.501e+03   1.534e+02  -5.633e-02   9.804e-08  -7.011e-09   1.419e+02
 -2.419e+03   2.345e+02   8.419e-02   1.836e-07  -5.589e-09   1.419e+02



TIME =   8.000e-01

Nodal Displacements

 Node          U1          U2          U3
    1   0.000e+00   0.000e+00   0.000e+00
    2   5.700e-03   2.157e-03   4.783e-02
    3  -2.813e-03   1.565e-03   1.876e-01
    4  -3.662e-02   1.465e-03   4.092e-01
    5  -1.021e-01   1.290e-03   7.002e-01
    6  -2.025e-01   1.140e-03   1.049e+00
    7  -3.388e-01   9.991e-04   1.446e+00
    8  -5.101e-01   8.686e-04   1.881e+00
    9  -7.144e-01   7.477e-04   2.348e+00
   10  -9.489e-01   6.356e-04   2.840e+00
   11  -1.210e+00   5.311e-04   3.351e+00
   12  -1.494e+00   4.333e-04   3.877e+00
   13  -1.798e+00   3.410e-04   4.415e+00
   14  -2.117e+00   2.529e-04   4.962e+00
   15  -2.448e+00   1.692e-04   5.514e+00
   16  -2.786e+00   8.086e-05   6.070e+00
   17  -3.128e+00   3.301e-05   6.627e+00
   18   0.000e+00   0.000e+00   0.000e+00
   19   5.700e-03  -2.157e-03   4.783e-02
   20  -2.813e-03  -1.565e-03   1.876e-01
   21  -3.662e-02  -1.465e-03   4.092e-01
   22  -1.021e-01  -1.290e-03   7.002e-01
   23  -2.025e-01  -1.140e-03   1.049e+00
   24  -3.388e-01  -9.991e-04   1.446e+00
   25  -5.101e-01  -8.686e-04   1.881e+00
   26  -7.144e-01  -7.477e-04   2.348e+00
   27  -9.489e-01  -6.356e-04   2.840e+00
   28  -1.210e+00  -5.311e-04   3.351e+00
   29  -1.494e+00  -4.333e-04   3.877e+00
   30  -1.798e+00  -3.410e-04   4.415e+00
   31  -2.117e+00  -2.528e-04   4.962e+00
   32  -2.448e+00  -1.692e-04   5.514e+00
   33  -2.786e+00  -8.083e-05   6.070e+00
   34  -3.128e+00  -3.299e-05   6.627e+00
   35   0.000e+00   0.000e+00   0.000e+00
   36  -9.343e-03  -2.184e-03   4.660e-02
   37  -3.185e-02  -1.584e-03   1.833e-01
   38  -7.760e-02  -1.478e-03   4.004e-01
   39  -1.531e-01  -1.299e-03   6.861e-01
   40  -2.620e-01  -1.145e-03   1.029e+00
   41  -4.052e-01  -1.001e-03   1.421e+00
   42  -5.821e-01  -8.678e-04   1.851e+00
   43  -7.909e-01  -7.449e-04   2.313e+00
   44  -1.029e+00  -6.311e-04   2.800e+00
   45  -1.293e+00  -5.254e-04   3.307e+00
   46  -1.579e+00  -4.266e-04   3.830e+00
   47  -1.885e+00  -3.335e-04   4.365e+00
   48  -2.205e+00  -2.449e-04   4.909e+00
   49  -2.536e+00  -1.608e-04   5.460e+00
   50  -2.875e+00  -7.232e-05   6.015e+00
   51  -3.217e+00  -2.439e-05   6.573e+00
   52   0.000e+00   0.000e+00   0.000e+00
   53  -9.343e-03   2.184e-03   4.660e-02
   54  -3.185e-02   1.584e-03   1.833e-01
   55  -7.760e-02   1.478e-03   4.004e-01
   56  -1.531e-01   1.299e-03   6.861e-01
   57  -2.620e-01   1.145e-03   1.029e+00
   58  -4.052e-01   1.001e-03   1.421e+00
   59  -5.821e-01   8.678e-04   1.851e+00
   60  -7.909e-01   7.449e-04   2.313e+00
   61  -1.029e+00   6.311e-04   2.800e+00
   62  -1.293e+00   5.254e-04   3.307e+00
   63  -1.579e+00   4.266e-04   3.830e+00
   64  -1.885e+00   3.336e-04   4.365e+00
   65  -2.205e+00   2.449e-04   4.909e+00
   66  -2.536e+00   1.609e-04   5.460e+00
   67  -2.875e+00   7.235e-05   6.015e+00
   68  -3.217e+00   2.442e-05   6.573e+00

Element Stress

        S11         S22         S33         S12         S23         S13
Element     1
  1.257e+05   1.613e+04  -1.173e+02  -2.350e-04   2.107e-06   3.307e+02
  8.179e+04   1.036e+04  -3.654e+02  -1.530e-04   2.870e-06   3.259e+02
 -8.128e+02  -2.748e+02  -5.515e+02   1.672e-06   4.316e-06   3.169e+02
 -8.256e+04  -1.052e+04  -3.654e+02   1.554e-04   5.762e-06   3.078e+02
 -1.253e+05  -1.577e+04  -1.173e+02   2.361e-04   6.525e-06   3.030e+02
Element     2
  1.139e+05  -3.038e+03  -1.826e+02  -4.299e-04   2.895e-07   3.087e+02
  7.413e+04  -2.149e+03  -4.225e+02  -2.803e-04   1.159e-06   3.107e+02
 -6.721e+02  -1.532e+02  -6.023e+02   2.356e-06   2.807e-06   3.146e+02
 -7.468e+04   2.248e+03  -4.225e+02   2.836e-04   4.455e-06   3.184e+02
 -1.134e+05   3.679e+03  -1.826e+02   4.314e-04   5.324e-06   3.205e+02
Element     3
  1.023e+05   4.056e+02  -1.170e+02  -4.173e-04  -2.701e-06   3.010e+02
  6.665e+04   1.428e+02  -3.038e+02  -2.722e-04  -2.013e-06   3.009e+02
 -4.772e+02  -1.181e+02  -4.439e+02   1.881e-06  -7.093e-07   3.006e+02
 -6.698e+04  -6.823e+01  -3.038e+02   2.747e-04   5.946e-07   3.003e+02
 -1.018e+05   8.333e+01  -1.170e+02   4.181e-04   1.282e-06   3.002e+02
Element     4
  9.130e+04  -1.490e+02  -1.065e+02  -4.331e-04  -1.614e-06   2.829e+02
  5.953e+04  -1.978e+02  -2.560e+02  -2.827e-04  -8.958e-07   2.836e+02
 -3.227e+02  -9.964e+01  -3.682e+02   1.443e-06   4.650e-07   2.848e+02
 -5.967e+04   2.480e+02  -2.560e+02   2.844e-04   1.826e-06   2.860e+02
 -9.078e+04   5.319e+02  -1.065e+02   4.333e-04   2.544e-06   2.866e+02
Element     5
  8.093e+04  -1.585e+01  -7.713e+01  -4.222e-04  -2.227e-06   2.665e+02
  5.281e+04  -8.771e+01  -1.943e+02  -2.758e-04  -1.648e-06   2.667e+02
 -1.917e+02  -7.475e+01  -2.822e+02   9.016e-07  -5.516e-07   2.670e+02
 -5.280e+04   1.336e+02  -1.943e+02   2.766e-04   5.451e-07   2.674e+02
 -8.040e+04   3.222e+02  -7.713e+01   4.217e-04   1.124e-06   2.676e+02
Element     6
  7.124e+04  -1.913e+01  -6.265e+01  -3.996e-04  -2.352e-06   2.480e+02
  4.653e+04  -7.294e+01  -1.533e+02  -2.612e-04  -1.769e-06   2.483e+02
 -8.387e+01  -5.950e+01  -2.213e+02   3.458e-07  -6.656e-07   2.489e+02
 -4.639e+04   1.051e+02  -1.533e+02   2.611e-04   4.383e-07   2.495e+02
 -7.070e+04   2.528e+02  -6.265e+01   3.983e-04   1.021e-06   2.498e+02
Element     7
  6.223e+04  -5.744e+00  -4.622e+01  -3.651e-04  -2.341e-06   2.306e+02
  4.068e+04  -4.948e+01  -1.153e+02  -2.389e-04  -1.863e-06   2.308e+02
  4.062e+00  -4.446e+01  -1.671e+02  -1.979e-07  -9.564e-07   2.311e+02
 -4.044e+04   7.567e+01  -1.153e+02   2.379e-04  -4.988e-08   2.315e+02
 -6.168e+04   1.854e+02  -4.622e+01   3.632e-04   4.283e-07   2.317e+02
Element     8
  5.386e+04  -2.180e+00  -3.522e+01  -3.229e-04  -2.433e-06   2.139e+02
  3.524e+04  -3.575e+01  -8.688e+01  -2.115e-04  -1.963e-06   2.141e+02
  7.496e+01  -3.365e+01  -1.256e+02  -6.999e-07  -1.074e-06   2.144e+02
 -3.492e+04   5.455e+01  -8.688e+01   2.096e-04  -1.838e-07   2.148e+02
 -5.331e+04   1.358e+02  -3.522e+01   3.203e-04   2.855e-07   2.150e+02
Element     9
  4.610e+04  -2.159e-01  -2.536e+01  -2.755e-04  -2.266e-06   1.988e+02
  3.019e+04  -2.516e+01  -6.313e+01  -1.806e-04  -1.875e-06   1.990e+02
  1.316e+02  -2.439e+01  -9.146e+01  -1.145e-06  -1.135e-06   1.992e+02
 -2.980e+04   3.931e+01  -6.313e+01   1.780e-04  -3.943e-07   1.994e+02
 -4.554e+04   9.827e+01  -2.536e+01   2.723e-04  -3.680e-09   1.996e+02
Element    10
  3.888e+04  -3.918e-01  -1.811e+01  -2.258e-04  -2.189e-06   1.853e+02
  2.549e+04  -1.804e+01  -4.491e+01  -1.483e-04  -1.817e-06   1.854e+02
  1.763e+02  -1.739e+01  -6.500e+01  -1.523e-06  -1.113e-06   1.857e+02
 -2.505e+04   2.790e+01  -4.491e+01   1.450e-04  -4.088e-07   1.859e+02
 -3.832e+04   6.978e+01  -1.811e+01   2.221e-04  -3.733e-08   1.860e+02
Element    11
  3.214e+04  -1.118e+00  -1.220e+01  -1.762e-04  -1.918e-06   1.737e+02
  2.110e+04  -1.282e+01  -3.045e+01  -1.159e-04  -1.612e-06   1.738e+02
  2.111e+02  -1.180e+01  -4.413e+01  -1.833e-06  -1.032e-06   1.740e+02
 -2.061e+04   1.963e+01  -3.045e+01   1.121e-04  -4.526e-07   1.741e+02
 -3.157e+04   4.846e+01  -1.220e+01   1.722e-04  -1.468e-07   1.742e+02
Element    12
  2.580e+04  -2.402e+00  -7.800e+00  -1.291e-04  -1.692e-06   1.640e+02
  1.696e+04  -9.334e+00  -1.950e+01  -8.518e-05  -1.416e-06   1.641e+02
  2.378e+02  -7.584e+00  -2.828e+01  -2.074e-06  -8.947e-07   1.642e+02
 -1.645e+04   1.366e+01  -1.950e+01   8.094e-05  -3.731e-07   1.643e+02
 -2.523e+04   3.273e+01  -7.800e+00   1.247e-04  -9.795e-08   1.644e+02
Element    13
  1.979e+04  -1.751e+00  -4.468e+00  -8.638e-05  -1.313e-06   1.563e+02
  1.304e+04  -5.675e+00  -1.131e+01  -5.732e-05  -1.101e-06   1.563e+02
  2.576e+02  -4.415e+00  -1.643e+01  -2.246e-06  -6.993e-07   1.564e+02
 -1.250e+04   8.234e+00  -1.131e+01   5.277e-05  -2.973e-07   1.565e+02
 -1.922e+04   1.950e+01  -4.468e+00   8.178e-05  -8.522e-08   1.565e+02
Element    14
  1.403e+04  -1.025e+01  -2.145e+00  -5.054e-05  -9.454e-07   1.504e+02
  9.277e+03  -8.967e+00  -5.544e+00  -3.390e-05  -7.790e-07   1.505e+02
  2.717e+02  -2.206e+00  -8.094e+00  -2.363e-06  -4.634e-07   1.505e+02
 -8.722e+03   1.022e+01  -5.544e+00   2.915e-05  -1.479e-07   1.506e+02
 -1.346e+04   1.906e+01  -2.145e+00   4.577e-05   1.852e-08   1.506e+02
Element    15
  8.461e+03   3.817e+01  -6.490e-01  -2.383e-05  -4.133e-07   1.466e+02
  5.635e+03   2.421e+01  -1.844e+00  -1.644e-05  -3.130e-07   1.466e+02
  2.806e+02  -7.431e-01  -2.740e+00  -2.427e-06  -1.230e-07   1.466e+02
 -5.069e+03  -2.371e+01  -1.844e+00   1.158e-05   6.708e-08   1.467e+02
 -7.890e+03  -3.503e+01  -6.490e-01   1.896e-05   1.673e-07   1.467e+02
Element    16
  2.998e+03  -2.388e+02   8.758e-02  -8.857e-06  -1.762e-08   1.447e+02
  2.061e+03  -1.565e+02  -5.849e-02  -6.645e-06   1.876e-08   1.447e+02
  2.850e+02  -1.099e-01  -1.681e-01  -2.452e-06   8.772e-08   1.447e+02
 -1.491e+03   1.565e+02  -5.849e-02   1.740e-06   1.567e-07   1.447e+02
 -2.427e+03   2.392e+02   8.758e-02   3.951e-06   1.930e-07   1.447e+02



TIME =   9.000e-01

Nodal Displacements

 Node          U1          U2          U3
    1   0.000e+00   0.000e+00   0.000e+00
    2   5.965e-03   2.314e-03   5.132e-02
    3  -4.361e-03   1.665e-03   2.009e-01
    4  -4.340e-02   1.551e-03   4.370e-01
    5  -1.180e-01   1.357e-03   7.455e-01
    6  -2.314e-01   1.193e-03   1.114e+00
    7  -3.843e-01   1.039e-03   1.530e+00
    8  -5.754e-01   8.984e-04   1.986e+00
    9  -8.021e-01   7.695e-04   2.472e+00
   10  -1.061e+00   6.512e-04   2.982e+00
   11  -1.348e+00   5.421e-04   3.511e+00
   12  -1.660e+00   4.408e-04   4.054e+00
   13  -1.991e+00   3.460e-04   4.608e+00
   14  -2.339e+00   2.561e-04   5.169e+00
   15  -2.699e+00   1.713e-04   5.736e+00
   16  -3.066e+00   8.210e-05   6.306e+00
   17  -3.438e+00   3.387e-05   6.878e+00
   18   0.000e+00   0.000e+00   0.000e+00
   19   5.965e-03  -2.314e-03   5.132e-02
   20  -4.361e-03  -1.665e-03   2.009e-01
   21  -4.340e-02  -1.551e-03   4.370e-01
   22  -1.180e-01  -1.357e-03   7.455e-01
   23  -2.314e-01  -1.193e-03   1.114e+00
   24  -3.843e-01  -1.039e-03   1.530e+00
   25  -5.754e-01  -8.984e-04   1.986e+00
   26  -8.021e-01  -7.695e-04   2.472e+00
   27  -1.061e+00  -6.512e-04   2.982e+00
   28  -1.348e+00  -5.421e-04   3.511e+00
   29  -1.660e+00  -4.408e-04   4.054e+00
   30  -1.991e+00  -3.460e-04   4.608e+00
   31  -2.339e+00  -2.561e-04   5.169e+00
   32  -2.699e+00  -1.713e-04   5.736e+00
   33  -3.066e+00  -8.210e-05   6.306e+00
   34  -3.438e+00  -3.387e-05   6.878e+00
   35   0.000e+00   0.000e+00   0.000e+00
   36  -1.015e-02  -2.344e-03   4.990e-02
   37  -3.535e-02  -1.686e-03   1.959e-01
   38  -8.693e-02  -1.564e-03   4.270e-01
   39  -1.720e-01  -1.366e-03   7.296e-01
   40  -2.940e-01  -1.197e-03   1.092e+00
   41  -4.539e-01  -1.040e-03   1.502e+00
   42  -6.505e-01  -8.968e-04   1.952e+00
   43  -8.815e-01  -7.657e-04   2.432e+00
   44  -1.144e+00  -6.456e-04   2.938e+00
   45  -1.434e+00  -5.351e-04   3.462e+00
   46  -1.747e+00  -4.328e-04   4.002e+00
   47  -2.080e+00  -3.373e-04   4.553e+00
   48  -2.429e+00  -2.469e-04   5.112e+00
   49  -2.790e+00  -1.617e-04   5.678e+00
   50  -3.158e+00  -7.228e-05   6.247e+00
   51  -3.530e+00  -2.395e-05   6.818e+00
   52   0.000e+00   0.000e+00   0.000e+00
   53  -1.015e-02   2.344e-03   4.990e-02
   54  -3.535e-02   1.686e-03   1.959e-01
   55  -8.693e-02   1.564e-03   4.270e-01
   56  -1.720e-01   1.366e-03   7.296e-01
   57  -2.940e-01   1.197e-03   1.092e+00
   58  -4.539e-01   1.040e-03   1.502e+00
   59  -6.505e-01   8.968e-04   1.952e+00
   60  -8.815e-01   7.657e-04   2.432e+00
   61  -1.144e+00   6.456e-04   2.938e+00
   62  -1.434e+00   5.351e-04   3.462e+00
   63  -1.747e+00   4.328e-04   4.002e+00
   64  -2.080e+00   3.373e-04   4.553e+00
   65  -2.429e+00   2.469e-04   5.112e+00
   66  -2.790e+00   1.617e-04   5.678e+00
   67  -3.158e+00   7.228e-05   6.247e+00
   68  -3.530e+00   2.395e-05   6.818e+00

Element Stress

        S11         S22         S33         S12         S23         S13
Element     1
  1.348e+05   1.728e+04  -1.343e+02  -4.283e-06   3.634e-08   3.721e+02
  8.764e+04   1.108e+04  -4.194e+02  -2.788e-06   5.138e-08   3.666e+02
 -9.325e+02  -3.162e+02  -6.332e+02   3.237e-08   7.991e-08   3.561e+02
 -8.852e+04  -1.127e+04  -4.194e+02   2.834e-06   1.084e-07   3.457e+02
 -1.343e+05  -1.687e+04  -1.343e+02   4.304e-06   1.235e-07   3.402e+02
Element     2
  1.215e+05  -3.323e+03  -2.080e+02  -7.851e-06   4.951e-10   3.461e+02
  7.904e+04  -2.358e+03  -4.810e+02  -5.117e-06   1.722e-08   3.484e+02
 -7.602e+02  -1.744e+02  -6.858e+02   4.620e-08   4.893e-08   3.529e+02
 -7.965e+04   2.472e+03  -4.810e+02   5.182e-06   8.064e-08   3.574e+02
 -1.209e+05   4.054e+03  -2.080e+02   7.880e-06   9.737e-08   3.598e+02
Element     3
  1.085e+05   4.088e+02  -1.310e+02  -7.410e-06  -5.908e-08   3.355e+02
  7.067e+04   1.295e+02  -3.412e+02  -4.833e-06  -4.588e-08   3.354e+02
 -5.285e+02  -1.329e+02  -4.988e+02   3.520e-08  -2.085e-08   3.351e+02
 -7.103e+04  -4.558e+01  -3.412e+02   4.880e-06   4.176e-09   3.348e+02
 -1.079e+05   1.414e+02  -1.310e+02   7.425e-06   1.738e-08   3.347e+02
Element     4
  9.628e+04  -1.807e+02  -1.184e+02  -7.419e-06  -3.765e-08   3.129e+02
  6.277e+04  -2.298e+02  -2.847e+02  -4.842e-06  -2.378e-08   3.137e+02
 -3.469e+02  -1.109e+02  -4.094e+02   2.610e-08   2.516e-09   3.151e+02
 -6.291e+04   2.855e+02  -2.847e+02   4.873e-06   2.881e-08   3.165e+02
 -9.568e+04   6.064e+02  -1.184e+02   7.422e-06   4.268e-08   3.172e+02
Element     5
  8.485e+04  -2.979e+01  -8.446e+01  -7.070e-06  -4.613e-08   2.923e+02
  5.537e+04  -1.045e+02  -2.132e+02  -4.618e-06  -3.501e-08   2.925e+02
 -1.950e+02  -8.209e+01  -3.098e+02   1.610e-08  -1.392e-08   2.929e+02
 -5.533e+04   1.550e+02  -2.132e+02   4.633e-06   7.162e-09   2.933e+02
 -8.424e+04   3.666e+02  -8.446e+01   7.061e-06   1.829e-08   2.935e+02
Element     6
  7.427e+04  -2.950e+01  -6.801e+01  -6.545e-06  -4.839e-08   2.694e+02
  4.851e+04  -8.496e+01  -1.665e+02  -4.279e-06  -3.704e-08   2.697e+02
 -7.191e+01  -6.469e+01  -2.404e+02   6.461e-09  -1.554e-08   2.704e+02
 -4.832e+04   1.198e+02  -1.665e+02   4.278e-06   5.970e-09   2.711e+02
 -7.365e+04   2.833e+02  -6.801e+01   6.525e-06   1.732e-08   2.715e+02
Element     7
  6.452e+04  -1.249e+01  -4.951e+01  -5.876e-06  -4.606e-08   2.481e+02
  4.218e+04  -5.728e+01  -1.237e+02  -3.844e-06  -3.669e-08   2.483e+02
  2.695e+01  -4.775e+01  -1.794e+02  -2.125e-09  -1.892e-08   2.487e+02
 -4.188e+04   8.547e+01  -1.237e+02   3.829e-06  -1.151e-09   2.491e+02
 -6.389e+04   2.056e+02  -4.951e+01   5.846e-06   8.222e-09   2.493e+02
Element     8
  5.557e+04  -7.132e+00  -3.740e+01  -5.119e-06  -4.818e-08   2.279e+02
  3.636e+04  -4.117e+01  -9.232e+01  -3.353e-06  -3.894e-08   2.281e+02
  1.054e+02  -3.578e+01  -1.335e+02  -9.946e-09  -2.141e-08   2.284e+02
 -3.597e+04   6.112e+01  -9.232e+01   3.324e-06  -3.879e-09   2.288e+02
 -5.493e+04   1.491e+02  -3.740e+01   5.080e-06   5.368e-09   2.290e+02
Element     9
  4.734e+04  -3.955e+00  -2.664e+01  -4.313e-06  -4.321e-08   2.097e+02
  3.101e+04  -2.893e+01  -6.641e+01  -2.827e-06  -3.585e-08   2.098e+02
  1.672e+02  -2.568e+01  -9.623e+01  -1.577e-08  -2.191e-08   2.101e+02
 -3.055e+04   4.384e+01  -6.641e+01   2.790e-06  -7.963e-09   2.103e+02
 -4.669e+04   1.072e+02  -2.664e+01   4.267e-06  -6.071e-10   2.105e+02
Element    10
  3.976e+04  -3.381e+00  -1.887e+01  -3.500e-06  -4.150e-08   1.936e+02
  2.608e+04  -2.078e+01  -4.684e+01  -2.298e-06  -3.448e-08   1.937e+02
  2.152e+02  -1.816e+01  -6.782e+01  -2.176e-08  -2.117e-08   1.939e+02
 -2.555e+04   3.106e+01  -4.684e+01   2.250e-06  -7.866e-09   1.941e+02
 -3.911e+04   7.580e+01  -1.887e+01   3.447e-06  -8.473e-10   1.943e+02
Element    11
  3.274e+04  -3.529e+00  -1.261e+01  -2.705e-06  -3.650e-08   1.798e+02
  2.151e+04  -1.483e+01  -3.151e+01  -1.779e-06  -3.075e-08   1.799e+02
  2.522e+02  -1.222e+01  -4.568e+01  -2.356e-08  -1.985e-08   1.801e+02
 -2.094e+04   2.189e+01  -3.151e+01   1.729e-06  -8.955e-09   1.802e+02
 -3.209e+04   5.257e+01  -1.261e+01   2.652e-06  -3.205e-09   1.803e+02
Element    12
  2.621e+04  -4.343e+00  -8.013e+00  -1.969e-06  -3.426e-08   1.684e+02
  1.724e+04  -1.083e+01  -2.006e+01  -1.298e-06  -2.892e-08   1.684e+02
  2.802e+02  -7.805e+00  -2.909e+01  -2.780e-08  -1.881e-08   1.686e+02
 -1.664e+04   1.528e+01  -2.006e+01   1.241e-06  -8.687e-09   1.687e+02
 -2.555e+04   3.555e+01  -8.013e+00   1.910e-06  -3.350e-09   1.687e+02
Element    13
  2.006e+04  -3.240e+00  -4.564e+00  -1.311e-06  -2.915e-08   1.593e+02
  1.323e+04  -6.756e+00  -1.156e+01  -8.684e-07  -2.468e-08   1.593e+02
  3.007e+02  -4.519e+00  -1.681e+01  -3.073e-08  -1.619e-08   1.594e+02
 -1.260e+04   9.376e+00  -1.156e+01   8.062e-07  -7.705e-09   1.595e+02
 -1.940e+04   2.140e+01  -4.564e+00   1.247e-06  -3.229e-09   1.595e+02
Element    14
  1.421e+04  -1.137e+01  -2.183e+00  -7.610e-07  -2.245e-08   1.525e+02
  9.407e+03  -9.746e+00  -5.648e+00  -5.093e-07  -1.930e-08   1.525e+02
  3.151e+02  -2.249e+00  -8.247e+00  -3.222e-08  -1.332e-08   1.526e+02
 -8.765e+03   1.102e+01  -5.648e+00   4.445e-07  -7.338e-09   1.526e+02
 -1.355e+04   2.035e+01  -2.183e+00   6.959e-07  -4.184e-09   1.527e+02
Element    15
  8.572e+03   3.782e+01  -6.581e-01  -3.547e-07  -1.301e-08   1.480e+02
  5.722e+03   2.397e+01  -1.873e+00  -2.435e-07  -1.137e-08   1.480e+02
  3.243e+02  -7.556e-01  -2.784e+00  -3.274e-08  -8.273e-09   1.481e+02
 -5.070e+03  -2.346e+01  -1.873e+00   1.779e-07  -5.171e-09   1.481e+02
 -7.914e+03  -3.463e+01  -6.581e-01   2.890e-07  -3.535e-09   1.481e+02
Element    16
  3.063e+03  -2.408e+02   8.896e-02  -1.227e-07  -5.096e-09   1.458e+02
  2.118e+03  -1.577e+02  -5.933e-02  -9.015e-08  -4.819e-09   1.458e+02
  3.287e+02  -1.118e-01  -1.706e-01  -2.846e-08  -4.295e-09   1.458e+02
 -1.460e+03   1.578e+02  -5.933e-02   3.322e-08  -3.771e-09   1.458e+02
 -2.404e+03   2.412e+02   8.896e-02   6.575e-08  -3.494e-09   1.458e+02



TIME =   1.000e+00

Nodal Displacements

 Node          U1          U2          U3
    1   0.000e+00   0.000e+00   0.000e+00
    2   6.192e-03   2.458e-03   5.455e-02
    3  -5.943e-03   1.756e-03   2.131e-01
    4  -5.007e-02   1.626e-03   4.623e-01
    5  -1.334e-01   1.414e-03   7.865e-01
    6  -2.592e-01   1.236e-03   1.172e+00
    7  -4.276e-01   1.071e-03   1.605e+00
    8  -6.369e-01   9.210e-04   2.078e+00
    9  -8.839e-01   7.851e-04   2.580e+00
   10  -1.165e+00   6.615e-04   3.105e+00
   11  -1.475e+00   5.485e-04   3.648e+00
   12  -1.811e+00   4.446e-04   4.204e+00
   13  -2.167e+00   3.481e-04   4.770e+00
   14  -2.540e+00   2.573e-04   5.344e+00
   15  -2.925e+00   1.720e-04   5.922e+00
   16  -3.318e+00   8.270e-05   6.503e+00
   17  -3.715e+00   3.448e-05   7.085e+00
   18   0.000e+00   0.000e+00   0.000e+00
   19   6.192e-03  -2.458e-03   5.455e-02
   20  -5.943e-03  -1.756e-03   2.131e-01
   21  -5.007e-02  -1.626e-03   4.623e-01
   22  -1.334e-01  -1.414e-03   7.865e-01
   23  -2.592e-01  -1.236e-03   1.172e+00
   24  -4.276e-01  -1.071e-03   1.605e+00
   25  -6.369e-01  -9.210e-04   2.078e+00
   26  -8.839e-01  -7.851e-04   2.580e+00
   27  -1.165e+00  -6.615e-04   3.105e+00
   28  -1.475e+00  -5.485e-04   3.648e+00
   29  -1.811e+00  -4.446e-04   4.204e+00
   30  -2.167e+00  -3.481e-04   4.770e+00
   31  -2.540e+00  -2.573e-04   5.344e+00
   32  -2.925e+00  -1.720e-04   5.922e+00
   33  -3.318e+00  -8.270e-05   6.503e+00
   34  -3.715e+00  -3.448e-05   7.085e+00
   35   0.000e+00   0.000e+00   0.000e+00
   36  -1.091e-02  -2.492e-03   5.295e-02
   37  -3.871e-02  -1.779e-03   2.075e-01
   38  -9.590e-02  -1.641e-03   4.512e-01
   39  -1.900e-01  -1.424e-03   7.689e-01
   40  -3.245e-01  -1.240e-03   1.147e+00
   41  -4.999e-01  -1.071e-03   1.575e+00
   42  -7.146e-01  -9.185e-04   2.041e+00
   43  -9.658e-01  -7.802e-04   2.537e+00
   44  -1.250e+00  -6.547e-04   3.057e+00
   45  -1.563e+00  -5.403e-04   3.596e+00
   46  -1.900e+00  -4.353e-04   4.149e+00
   47  -2.258e+00  -3.381e-04   4.712e+00
   48  -2.632e+00  -2.467e-04   5.283e+00
   49  -3.018e+00  -1.611e-04   5.859e+00
   50  -3.411e+00  -7.157e-05   6.439e+00
   51  -3.809e+00  -2.327e-05   7.021e+00
   52   0.000e+00   0.000e+00   0.000e+00
   53  -1.091e-02   2.492e-03   5.295e-02
   54  -3.871e-02   1.779e-03   2.075e-01
   55  -9.590e-02   1.641e-03   4.512e-01
   56  -1.900e-01   1.424e-03   7.689e-01
   57  -3.245e-01   1.240e-03   1.147e+00
   58  -4.999e-01   1.071e-03   1.575e+00
   59  -7.146e-01   9.185e-04   2.041e+00
   60  -9.658e-01   7.802e-04   2.537e+00
   61  -1.250e+00   6.547e-04   3.057e+00
   62  -1.563e+00   5.403e-04   3.596e+00
   63  -1.900e+00   4.353e-04   4.149e+00
   64  -2.258e+00   3.381e-04   4.712e+00
   65  -2.632e+00   2.467e-04   5.283e+00
   66  -3.018e+00   1.611e-04   5.859e+00
   67  -3.411e+00   7.157e-05   6.439e+00
   68  -3.809e+00   2.327e-05   7.021e+00

Element Stress

        S11         S22         S33         S12         S23         S13
Element     1
  1.431e+05   1.834e+04  -1.509e+02  -9.766e-08   8.260e-10   4.133e+02
  9.303e+04   1.175e+04  -4.724e+02  -6.354e-08   1.167e-09   4.071e+02
 -1.050e+03  -3.571e+02  -7.136e+02   7.687e-10   1.814e-09   3.954e+02
 -9.403e+04  -1.196e+04  -4.724e+02   6.462e-08   2.461e-09   3.836e+02
 -1.426e+05  -1.788e+04  -1.509e+02   9.812e-08   2.802e-09   3.775e+02
Element     2
  1.284e+05  -3.600e+03  -2.325e+02  -1.738e-07  -2.345e-10   3.832e+02
  8.350e+04  -2.560e+03  -5.376e+02  -1.132e-07   8.693e-11   3.860e+02
 -8.439e+02  -1.948e+02  -7.664e+02   1.099e-09   6.963e-10   3.911e+02
 -8.417e+04   2.688e+03  -5.376e+02   1.148e-07   1.306e-09   3.963e+02
 -1.277e+05   4.417e+03  -2.325e+02   1.745e-07   1.627e-09   3.990e+02
Element     3
  1.140e+05   4.077e+02  -1.440e+02  -1.378e-07  -2.095e-09   3.695e+02
  7.426e+04   1.143e+02  -3.761e+02  -8.988e-08  -1.828e-09   3.694e+02
 -5.744e+02  -1.468e+02  -5.502e+02   6.406e-10  -1.322e-09   3.691e+02
 -7.463e+04  -2.162e+01  -3.761e+02   9.070e-08  -8.152e-10   3.688e+02
 -1.134e+05   2.001e+02  -1.440e+02   1.380e-07  -5.480e-10   3.686e+02
Element     4
  1.006e+05  -2.128e+02  -1.293e+02  -1.121e-07  -1.291e-09   3.420e+02
  6.558e+04  -2.611e+02  -3.109e+02  -7.317e-08  -1.008e-09   3.429e+02
 -3.654e+02  -1.213e+02  -4.470e+02   4.096e-10  -4.720e-10   3.445e+02
 -6.571e+04   3.216e+02  -3.109e+02   7.366e-08   6.436e-11   3.461e+02
 -9.994e+04   6.773e+02  -1.293e+02   1.122e-07   3.473e-10   3.469e+02
Element     5
  8.817e+04  -4.398e+01  -9.082e+01  -9.270e-08  -1.388e-09   3.168e+02
  5.753e+04  -1.205e+02  -2.298e+02  -6.057e-08  -1.133e-09   3.171e+02
 -1.931e+02  -8.853e+01  -3.340e+02   1.690e-10  -6.480e-10   3.176e+02
 -5.745e+04   1.751e+02  -2.298e+02   6.067e-08  -1.635e-10   3.180e+02
 -8.747e+04   4.076e+02  -9.082e+01   9.249e-08   9.216e-11   3.183e+02
Element     6
  7.674e+04  -3.988e+01  -7.252e+01  -7.466e-08  -1.494e-09   2.894e+02
  5.013e+04  -9.618e+01  -1.776e+02  -4.887e-08  -1.079e-09   2.898e+02
 -5.533e+01  -6.908e+01  -2.564e+02  -1.165e-10  -2.929e-10   2.906e+02
 -4.989e+04   1.332e+02  -1.776e+02   4.847e-08   4.935e-10   2.913e+02
 -7.603e+04   3.106e+02  -7.252e+01   7.403e-08   9.084e-10   2.917e+02
Element     7
  6.631e+04  -1.926e+01  -5.210e+01  -5.946e-08  -7.177e-10   2.641e+02
  4.336e+04  -6.443e+01  -1.304e+02  -3.896e-08  -6.115e-10   2.643e+02
  5.363e+01  -5.036e+01  -1.891e+02  -1.752e-10  -4.101e-10   2.647e+02
 -4.299e+04   9.423e+01  -1.304e+02   3.849e-08  -2.088e-10   2.651e+02
 -6.559e+04   2.231e+02  -5.210e+01   5.884e-08  -1.025e-10   2.653e+02
Element     8
  5.682e+04  -1.214e+01  -3.902e+01  -4.708e-08  -3.181e-10   2.402e+02
  3.720e+04  -4.608e+01  -9.639e+01  -3.105e-08  -4.103e-10   2.404e+02
  1.389e+02  -3.740e+01  -1.394e+02  -7.164e-10  -5.849e-10   2.408e+02
 -3.673e+04   6.689e+01  -9.639e+01   2.954e-08  -7.596e-10   2.413e+02
 -5.610e+04   1.604e+02  -3.902e+01   4.548e-08  -8.518e-10   2.415e+02
Element     9
  4.819e+04  -7.774e+00  -2.750e+01  -3.831e-08  -1.269e-09   2.190e+02
  3.158e+04  -3.234e+01  -6.864e+01  -2.546e-08  -9.828e-10   2.191e+02
  2.050e+02  -2.656e+01  -9.950e+01  -1.128e-09  -4.409e-10   2.194e+02
 -3.103e+04   4.779e+01  -6.864e+01   2.315e-08   1.010e-10   2.197e+02
 -4.746e+04   1.146e+02  -2.750e+01   3.593e-08   3.869e-10   2.198e+02
Element    10
  4.031e+04  -6.453e+00  -1.933e+01  -2.628e-08   7.610e-10   2.003e+02
  2.645e+04  -2.327e+01  -4.802e+01  -1.701e-08   6.762e-10   2.004e+02
  2.557e+02  -1.863e+01  -6.954e+01   5.314e-10   5.154e-10   2.007e+02
 -2.584e+04   3.381e+01  -4.802e+01   1.805e-08   3.546e-10   2.009e+02
 -3.957e+04   8.073e+01  -1.933e+01   2.728e-08   2.697e-10   2.010e+02
Element    11
  3.308e+04  -6.008e+00  -1.281e+01  -2.072e-08   7.606e-10   1.845e+02
  2.174e+04  -1.668e+01  -3.205e+01  -1.355e-08   6.286e-10   1.845e+02
  2.942e+02  -1.243e+01  -4.648e+01   4.613e-11   3.784e-10   1.847e+02
 -2.109e+04   2.387e+01  -3.205e+01   1.362e-08   1.282e-10   1.849e+02
 -3.234e+04   5.594e+01  -1.281e+01   2.077e-08  -3.850e-12   1.850e+02
Element    12
  2.640e+04  -6.322e+00  -8.092e+00  -1.497e-08  -4.881e-10   1.713e+02
  1.738e+04  -1.222e+01  -2.027e+01  -9.913e-09  -3.410e-10   1.714e+02
  3.230e+02  -7.897e+00  -2.941e+01  -3.461e-10  -6.211e-11   1.715e+02
 -1.670e+04   1.672e+01  -2.027e+01   9.209e-09   2.167e-10   1.717e+02
 -2.566e+04   3.788e+01  -8.092e+00   1.424e-08   3.638e-10   1.717e+02
Element    13
  2.016e+04  -4.753e+00  -4.582e+00  -1.003e-08  -6.982e-10   1.610e+02
  1.331e+04  -7.775e+00  -1.162e+01  -6.994e-09  -5.873e-10   1.610e+02
  3.439e+02  -4.546e+00  -1.690e+01  -1.248e-09  -3.770e-10   1.611e+02
 -1.260e+04   1.041e+01  -1.162e+01   4.493e-09  -1.666e-10   1.612e+02
 -1.942e+04   2.303e+01  -4.582e+00   7.521e-09  -5.568e-11   1.612e+02
Element    14
  1.427e+04  -1.243e+01  -2.184e+00  -5.598e-09  -1.467e-09   1.532e+02
  9.460e+03  -1.044e+01  -5.656e+00  -3.866e-09  -9.692e-10   1.533e+02
  3.585e+02  -2.254e+00  -8.261e+00  -5.850e-10  -2.628e-11   1.533e+02
 -8.731e+03   1.172e+01  -5.656e+00   2.694e-09   9.167e-10   1.534e+02
 -1.352e+04   2.142e+01  -2.184e+00   4.423e-09   1.414e-09   1.534e+02
Element    15
  8.612e+03   3.714e+01  -6.561e-01  -5.231e-09  -1.358e-09   1.482e+02
  5.764e+03   2.352e+01  -1.870e+00  -4.344e-09  -1.254e-09   1.482e+02
  3.677e+02  -7.553e-01  -2.781e+00  -2.662e-09  -1.057e-09   1.482e+02
 -5.025e+03  -2.302e+01  -1.870e+00  -9.806e-10  -8.604e-10   1.482e+02
 -7.867e+03  -3.395e+01  -6.561e-01  -9.392e-11  -7.565e-10   1.483e+02
Element    16
  3.103e+03  -2.407e+02   8.883e-02  -3.956e-09  -2.886e-09   1.456e+02
  2.160e+03  -1.577e+02  -5.917e-02  -3.621e-09  -2.339e-09   1.456e+02
  3.721e+02  -1.118e-01  -1.702e-01  -2.986e-09  -1.303e-09   1.456e+02
 -1.415e+03   1.577e+02  -5.917e-02  -2.351e-09  -2.672e-10   1.456e+02
 -2.358e+03   2.411e+02   8.883e-02  -2.016e-09   2.793e-10   1.457e+02

		 *** Successful end of program ***
