

TIME =   1.000e+00

Nodal Displacements

 Node          U1          U2          U3
    1   0.000e+00   0.000e+00   0.000e+00
    2   2.758e-03   7.752e-04   1.494e-02
    3   5.759e-03   1.075e-03   6.725e-02
    4   8.630e-03   1.042e-03   1.573e-01
    5   1.129e-02   9.416e-04   2.821e-01
    6   1.374e-02   8.534e-04   4.389e-01
    7   1.598e-02   7.771e-04   6.249e-01
    8   1.801e-02   7.042e-04   8.376e-01
    9   1.982e-02   6.315e-04   1.074e+00
   10   2.142e-02   5.585e-04   1.332e+00
   11   2.281e-02   4.854e-04   1.609e+00
   12   2.398e-02   4.124e-04   1.902e+00
   13   2.494e-02   3.399e-04   2.208e+00
   14   2.569e-02   2.686e-04   2.524e+00
   15   2.622e-02   1.984e-04   2.849e+00
   16   2.653e-02   1.288e-04   3.179e+00
   17   2.660e-02   7.367e-05   3.511e+00
   18   0.000e+00   0.000e+00   0.000e+00
   19   2.929e-03  -3.049e-04   1.739e-02
   20   5.757e-03  -7.581e-04   6.976e-02
   21   8.593e-03  -8.817e-04   1.590e-01
   22   1.127e-02  -8.399e-04   2.834e-01
   23   1.374e-02  -7.619e-04   4.401e-01
   24   1.598e-02  -6.848e-04   6.261e-01
   25   1.801e-02  -6.111e-04   8.388e-01
   26   1.982e-02  -5.382e-04   1.075e+00
   27   2.142e-02  -4.652e-04   1.333e+00
   28   2.281e-02  -3.921e-04   1.610e+00
   29   2.398e-02  -3.189e-04   1.903e+00
   30   2.494e-02  -2.459e-04   2.209e+00
   31   2.569e-02  -1.733e-04   2.526e+00
   32   2.622e-02  -1.006e-04   2.850e+00
   33   2.655e-02  -2.088e-05   3.180e+00
   34   2.670e-02   9.190e-05   3.513e+00
   35   0.000e+00   0.000e+00   0.000e+00
   36  -2.758e-03  -7.752e-04   1.494e-02
   37  -5.759e-03  -1.075e-03   6.725e-02
   38  -8.630e-03  -1.042e-03   1.573e-01
   39  -1.129e-02  -9.416e-04   2.821e-01
   40  -1.374e-02  -8.534e-04   4.389e-01
   41  -1.598e-02  -7.771e-04   6.249e-01
   42  -1.801e-02  -7.042e-04   8.376e-01
   43  -1.982e-02  -6.315e-04   1.074e+00
   44  -2.142e-02  -5.585e-04   1.332e+00
   45  -2.281e-02  -4.854e-04   1.609e+00
   46  -2.398e-02  -4.124e-04   1.902e+00
   47  -2.494e-02  -3.399e-04   2.208e+00
   48  -2.569e-02  -2.686e-04   2.524e+00
   49  -2.622e-02  -1.984e-04   2.849e+00
   50  -2.653e-02  -1.288e-04   3.179e+00
   51  -2.660e-02  -7.367e-05   3.511e+00
   52   0.000e+00   0.000e+00   0.000e+00
   53  -2.929e-03   3.049e-04   1.739e-02
   54  -5.757e-03   7.581e-04   6.976e-02
   55  -8.593e-03   8.817e-04   1.590e-01
   56  -1.127e-02   8.399e-04   2.834e-01
   57  -1.374e-02   7.619e-04   4.401e-01
   58  -1.598e-02   6.848e-04   6.261e-01
   59  -1.801e-02   6.111e-04   8.388e-01
   60  -1.982e-02   5.382e-04   1.075e+00
   61  -2.142e-02   4.652e-04   1.333e+00
   62  -2.281e-02   3.921e-04   1.610e+00
   63  -2.398e-02   3.189e-04   1.903e+00
   64  -2.494e-02   2.459e-04   2.209e+00
   65  -2.569e-02   1.733e-04   2.526e+00
   66  -2.622e-02   1.006e-04   2.850e+00
   67  -2.655e-02   2.088e-05   3.180e+00
   68  -2.670e-02  -9.190e-05   3.513e+00

Element Stress

        S11         S22         S33         S12         S23         S13
Element     1
  5.316e+04   1.091e+04   1.922e+04   5.430e+03  -7.966e+01  -4.344e+02
  3.480e+04   7.145e+03   1.258e+04   3.555e+03  -7.966e+01  -4.344e+02
  8.839e-07   2.713e-07   6.818e-08  -1.258e-07  -7.966e+01  -4.344e+02
 -3.480e+04  -7.145e+03  -1.258e+04  -3.555e+03  -7.966e+01  -4.344e+02
 -5.316e+04  -1.091e+04  -1.922e+04  -5.430e+03  -7.966e+01  -4.344e+02
Element     2
  6.309e+04   2.704e+04   2.704e+04  -1.876e+03   3.909e+03   6.344e+02
  4.130e+04   1.770e+04   1.770e+04  -1.228e+03   3.909e+03   6.344e+02
 -9.440e-07  -2.966e-07  -4.481e-08   2.557e-07   3.909e+03   6.344e+02
 -4.130e+04  -1.770e+04  -1.770e+04   1.228e+03   3.909e+03   6.344e+02
 -6.309e+04  -2.704e+04  -2.704e+04   1.876e+03   3.909e+03   6.344e+02
Element     3
  5.407e+04   3.027e+03   1.713e+04   1.838e+03   1.328e+03   5.285e+02
  3.540e+04   1.982e+03   1.121e+04   1.203e+03   1.328e+03   5.285e+02
  8.071e-07   2.194e-07  -2.735e-08  -1.183e-07   1.328e+03   5.285e+02
 -3.540e+04  -1.982e+03  -1.121e+04  -1.203e+03   1.328e+03   5.285e+02
 -5.407e+04  -3.027e+03  -1.713e+04  -1.838e+03   1.328e+03   5.285e+02
Element     4
  5.468e+04   1.157e+04   1.987e+04  -2.130e+03  -1.461e+03  -3.285e+02
  3.580e+04   7.571e+03   1.301e+04  -1.394e+03  -1.461e+03  -3.285e+02
 -8.677e-07  -2.833e-07  -2.891e-08   2.478e-07  -1.461e+03  -3.285e+02
 -3.580e+04  -7.571e+03  -1.301e+04   1.394e+03  -1.461e+03  -3.285e+02
 -5.468e+04  -1.157e+04  -1.987e+04   2.130e+03  -1.461e+03  -3.285e+02
Element     5
  5.075e+04   6.147e+02   1.541e+04  -3.502e+02   4.909e+02   2.989e+02
  3.322e+04   4.024e+02   1.009e+04  -2.293e+02   4.909e+02   2.989e+02
  7.340e-07   2.053e-07  -1.019e-08  -1.058e-07   4.909e+02   2.989e+02
 -3.322e+04  -4.024e+02  -1.009e+04   2.293e+02   4.909e+02   2.989e+02
 -5.075e+04  -6.147e+02  -1.541e+04   3.502e+02   4.909e+02   2.989e+02
Element     6
  5.050e+04   1.499e+03   1.560e+04  -7.676e+02  -9.608e+02  -9.889e+01
  3.306e+04   9.811e+02   1.021e+04  -5.025e+02  -9.608e+02  -9.889e+01
 -7.945e-07  -2.407e-07   4.053e-08   2.347e-07  -9.608e+02  -9.889e+01
 -3.306e+04  -9.811e+02  -1.021e+04   5.025e+02  -9.608e+02  -9.889e+01
 -5.050e+04  -1.499e+03  -1.560e+04   7.676e+02  -9.608e+02  -9.889e+01
Element     7
  4.709e+04   6.052e+02   1.431e+04  -6.899e+02   4.432e+01   1.260e+02
  3.083e+04   3.962e+02   9.367e+03  -4.516e+02   4.432e+01   1.260e+02
  6.680e-07   2.002e-07   4.398e-08  -8.478e-08   4.432e+01   1.260e+02
 -3.083e+04  -3.962e+02  -9.367e+03   4.516e+02   4.432e+01   1.260e+02
 -4.709e+04  -6.052e+02  -1.431e+04   6.899e+02   4.432e+01   1.260e+02
Element     8
  4.666e+04  -1.137e+03   1.366e+04   1.135e+02  -2.143e+02   7.400e+01
  3.055e+04  -7.446e+02   8.940e+03   7.427e+01  -2.143e+02   7.400e+01
 -7.268e-07  -2.403e-07  -3.477e-08   2.121e-07  -2.143e+02   7.400e+01
 -3.055e+04   7.446e+02  -8.940e+03  -7.427e+01  -2.143e+02   7.400e+01
 -4.666e+04   1.137e+03  -1.366e+04  -1.135e+02  -2.143e+02   7.400e+01
Element     9
  4.345e+04   8.711e+02   1.330e+04  -5.621e+02  -3.420e+01   8.821e+01
  2.844e+04   5.703e+02   8.705e+03  -3.680e+02  -3.420e+01   8.821e+01
  5.978e-07   1.623e-07  -1.401e-08  -7.538e-08  -3.420e+01   8.821e+01
 -2.844e+04  -5.703e+02  -8.705e+03   3.680e+02  -3.420e+01   8.821e+01
 -4.345e+04  -8.711e+02  -1.330e+04   5.621e+02  -3.420e+01   8.821e+01
Element    10
  4.280e+04  -1.234e+03   1.247e+04   4.053e+02   1.614e+01   1.118e+02
  2.802e+04  -8.075e+02   8.163e+03   2.654e+02   1.614e+01   1.118e+02
 -6.565e-07  -2.184e-07  -2.712e-08   1.981e-07   1.614e+01   1.118e+02
 -2.802e+04   8.075e+02  -8.163e+03  -2.654e+02   1.614e+01   1.118e+02
 -4.280e+04   1.234e+03  -1.247e+04  -4.053e+02   1.614e+01   1.118e+02
Element    11
  3.977e+04   9.779e+02   1.222e+04  -4.711e+02  -1.739e+01   9.263e+01
  2.603e+04   6.402e+02   8.002e+03  -3.084e+02  -1.739e+01   9.263e+01
  5.244e-07   1.390e-07  -2.303e-08  -6.377e-08  -1.739e+01   9.263e+01
 -2.603e+04  -6.402e+02  -8.002e+03   3.084e+02  -1.739e+01   9.263e+01
 -3.977e+04  -9.779e+02  -1.222e+04   4.711e+02  -1.739e+01   9.263e+01
Element    12
  3.898e+04  -1.043e+03   1.138e+04   4.547e+02   2.713e+01   1.074e+02
  2.552e+04  -6.831e+02   7.451e+03   2.977e+02   2.713e+01   1.074e+02
 -5.862e-07  -1.855e-07   1.051e-08   1.831e-07   2.713e+01   1.074e+02
 -2.552e+04   6.831e+02  -7.451e+03  -2.977e+02   2.713e+01   1.074e+02
 -3.898e+04   1.043e+03  -1.138e+04  -4.547e+02   2.713e+01   1.074e+02
Element    13
  3.604e+04   9.925e+02   1.111e+04  -4.476e+02  -3.036e+00   9.836e+01
  2.359e+04   6.498e+02   7.273e+03  -2.930e+02  -3.036e+00   9.836e+01
  4.604e-07   1.236e-07  -6.862e-09  -5.056e-08  -3.036e+00   9.836e+01
 -2.359e+04  -6.498e+02  -7.273e+03   2.930e+02  -3.036e+00   9.836e+01
 -3.604e+04  -9.925e+02  -1.111e+04   4.476e+02  -3.036e+00   9.836e+01
Element    14
  3.521e+04  -9.758e+02   1.027e+04   4.525e+02   8.230e+00   1.016e+02
  2.305e+04  -6.388e+02   6.723e+03   2.962e+02   8.230e+00   1.016e+02
 -5.191e-07  -1.721e-07  -1.641e-08   1.623e-07   8.230e+00   1.016e+02
 -2.305e+04   6.388e+02  -6.723e+03  -2.962e+02   8.230e+00   1.016e+02
 -3.521e+04   9.758e+02  -1.027e+04  -4.525e+02   8.230e+00   1.016e+02
Element    15
  3.230e+04   9.878e+02   9.985e+03  -4.473e+02   6.380e-01   1.001e+02
  2.114e+04   6.466e+02   6.537e+03  -2.928e+02   6.380e-01   1.001e+02
  3.914e-07   9.866e-08  -2.618e-08  -3.841e-08   6.380e-01   1.001e+02
 -2.114e+04  -6.466e+02  -6.537e+03   2.928e+02   6.380e-01   1.001e+02
 -3.230e+04  -9.878e+02  -9.985e+03   4.473e+02   6.380e-01   1.001e+02
Element    16
  3.145e+04  -9.737e+02   9.144e+03   4.493e+02   2.328e-01   9.989e+01
  2.059e+04  -6.374e+02   5.986e+03   2.941e+02   2.328e-01   9.989e+01
 -4.430e-07  -1.421e-07   1.098e-08   1.485e-07   2.328e-01   9.989e+01
 -2.059e+04   6.374e+02  -5.986e+03  -2.941e+02   2.328e-01   9.989e+01
 -3.145e+04   9.737e+02  -9.144e+03  -4.493e+02   2.328e-01   9.989e+01
Element    17
  2.855e+04   9.848e+02   8.859e+03  -4.493e+02   5.783e-01   1.002e+02
  1.869e+04   6.447e+02   5.800e+03  -2.941e+02   5.783e-01   1.002e+02
  3.445e-07   9.867e-08   1.750e-08  -2.405e-08   5.783e-01   1.002e+02
 -1.869e+04  -6.447e+02  -5.800e+03   2.941e+02   5.783e-01   1.002e+02
 -2.855e+04  -9.848e+02  -8.859e+03   4.493e+02   5.783e-01   1.002e+02
Element    18
  2.770e+04  -9.808e+02   8.017e+03   4.492e+02  -7.985e-01   9.979e+01
  1.814e+04  -6.421e+02   5.248e+03   2.941e+02  -7.985e-01   9.979e+01
 -3.852e-07  -1.317e-07  -1.738e-08   1.328e-07  -7.985e-01   9.979e+01
 -1.814e+04   6.421e+02  -5.248e+03  -2.941e+02  -7.985e-01   9.979e+01
 -2.770e+04   9.808e+02  -8.017e+03  -4.492e+02  -7.985e-01   9.979e+01
Element    19
  2.480e+04   9.842e+02   7.734e+03  -4.497e+02   1.149e-01   1.001e+02
  1.623e+04   6.443e+02   5.063e+03  -2.944e+02   1.149e-01   1.001e+02
  2.700e-07   5.685e-08  -4.406e-08  -1.835e-08   1.149e-01   1.001e+02
 -1.623e+04  -6.443e+02  -5.063e+03   2.944e+02   1.149e-01   1.001e+02
 -2.480e+04  -9.842e+02  -7.734e+03   4.497e+02   1.149e-01   1.001e+02
Element    20
  2.395e+04  -9.837e+02   6.891e+03   4.500e+02  -3.682e-01   9.992e+01
  1.568e+04  -6.440e+02   4.511e+03   2.946e+02  -3.682e-01   9.992e+01
 -3.021e-07  -8.477e-08   5.268e-08   1.153e-07  -3.682e-01   9.992e+01
 -1.568e+04   6.440e+02  -4.511e+03  -2.946e+02  -3.682e-01   9.992e+01
 -2.395e+04   9.837e+02  -6.891e+03  -4.500e+02  -3.682e-01   9.992e+01
Element    21
  2.105e+04   9.829e+02   6.609e+03  -4.485e+02  -5.694e-01   9.995e+01
  1.378e+04   6.435e+02   4.326e+03  -2.936e+02  -5.694e-01   9.995e+01
  2.083e-07   4.966e-08  -1.143e-08  -7.706e-10  -5.694e-01   9.995e+01
 -1.378e+04  -6.435e+02  -4.326e+03   2.936e+02  -5.694e-01   9.995e+01
 -2.105e+04  -9.829e+02  -6.609e+03   4.485e+02  -5.694e-01   9.995e+01
Element    22
  2.020e+04  -9.836e+02   5.766e+03   4.506e+02   9.936e-02   1.001e+02
  1.323e+04  -6.439e+02   3.775e+03   2.950e+02   9.936e-02   1.001e+02
 -2.722e-07  -1.052e-07  -4.218e-08   1.023e-07   9.936e-02   1.001e+02
 -1.323e+04   6.439e+02  -3.775e+03  -2.950e+02   9.936e-02   1.001e+02
 -2.020e+04   9.836e+02  -5.766e+03  -4.506e+02   9.936e-02   1.001e+02
Element    23
  1.729e+04   9.741e+02   5.480e+03  -4.446e+02  -2.054e+00   9.966e+01
  1.132e+04   6.377e+02   3.588e+03  -2.911e+02  -2.054e+00   9.966e+01
  1.951e-07   6.182e-08   5.043e-08   6.599e-10  -2.054e+00   9.966e+01
 -1.132e+04  -6.377e+02  -3.588e+03   2.911e+02  -2.054e+00   9.966e+01
 -1.729e+04  -9.741e+02  -5.480e+03   4.446e+02  -2.054e+00   9.966e+01
Element    24
  1.646e+04  -9.835e+02   4.642e+03   4.504e+02   1.027e+00   1.003e+02
  1.077e+04  -6.438e+02   3.039e+03   2.948e+02   1.027e+00   1.003e+02
 -2.126e-07  -9.267e-08  -6.495e-08   7.771e-08   1.027e+00   1.003e+02
 -1.077e+04   6.438e+02  -3.039e+03  -2.948e+02   1.027e+00   1.003e+02
 -1.646e+04   9.835e+02  -4.642e+03  -4.504e+02   1.027e+00   1.003e+02
Element    25
  1.353e+04   9.447e+02   4.343e+03  -4.353e+02  -2.396e+00   9.961e+01
  8.860e+03   6.184e+02   2.843e+03  -2.850e+02  -2.396e+00   9.961e+01
  1.190e-07   1.641e-08  -3.042e-08   1.160e-08  -2.396e+00   9.961e+01
 -8.860e+03  -6.184e+02  -2.843e+03   2.850e+02  -2.396e+00   9.961e+01
 -1.353e+04  -9.447e+02  -4.343e+03   4.353e+02  -2.396e+00   9.961e+01
Element    26
  1.272e+04  -9.872e+02   3.519e+03   4.481e+02   2.134e+00   1.004e+02
  8.325e+03  -6.462e+02   2.304e+03   2.933e+02   2.134e+00   1.004e+02
 -1.419e-07  -5.333e-08   3.602e-09   7.277e-08   2.134e+00   1.004e+02
 -8.325e+03   6.462e+02  -2.304e+03  -2.933e+02   2.134e+00   1.004e+02
 -1.272e+04   9.872e+02  -3.519e+03  -4.481e+02   2.134e+00   1.004e+02
Element    27
  9.744e+03   8.898e+02   3.190e+03  -4.126e+02   9.625e+00   1.029e+02
  6.379e+03   5.825e+02   2.088e+03  -2.701e+02   9.625e+00   1.029e+02
  4.482e-08   9.615e-09  -1.434e-09   3.391e-09   9.625e+00   1.029e+02
 -6.379e+03  -5.825e+02  -2.088e+03   2.701e+02   9.625e+00   1.029e+02
 -9.744e+03  -8.898e+02  -3.190e+03   4.126e+02   9.625e+00   1.029e+02
Element    28
  9.006e+03  -9.957e+02   2.403e+03   4.508e+02  -2.876e+00   9.709e+01
  5.896e+03  -6.518e+02   1.573e+03   2.951e+02  -2.876e+00   9.709e+01
 -1.301e-07  -7.867e-08  -9.817e-08   3.628e-08  -2.876e+00   9.709e+01
 -5.896e+03   6.518e+02  -1.573e+03  -2.951e+02  -2.876e+00   9.709e+01
 -9.006e+03   9.957e+02  -2.403e+03  -4.508e+02  -2.876e+00   9.709e+01
Element    29
  5.842e+03   8.588e+02   2.010e+03  -3.327e+02   5.282e+01   1.179e+02
  3.824e+03   5.622e+02   1.316e+03  -2.178e+02   5.282e+01   1.179e+02
  3.390e-08  -1.402e-08  -2.956e-08   1.419e-08   5.282e+01   1.179e+02
 -3.824e+03  -5.622e+02  -1.316e+03   2.178e+02   5.282e+01   1.179e+02
 -5.842e+03  -8.588e+02  -2.010e+03   3.327e+02   5.282e+01   1.179e+02
Element    30
  5.408e+03  -9.683e+02   1.332e+03   5.100e+02  -3.369e+01   8.205e+01
  3.541e+03  -6.339e+02   8.720e+02   3.338e+02  -3.369e+01   8.205e+01
 -8.744e-08  -5.878e-08  -9.716e-08   2.792e-08  -3.369e+01   8.205e+01
 -3.541e+03   6.339e+02  -8.720e+02  -3.338e+02  -3.369e+01   8.205e+01
 -5.408e+03   9.683e+02  -1.332e+03  -5.100e+02  -3.369e+01   8.205e+01
Element    31
  1.577e+03   8.763e+02   7.361e+02   3.568e+01   7.808e+01   1.488e+02
  1.033e+03   5.737e+02   4.819e+02   2.336e+01   7.808e+01   1.488e+02
  2.397e-08  -1.549e-08  -3.298e-08   8.799e-09   7.808e+01   1.488e+02
 -1.033e+03  -5.737e+02  -4.819e+02  -2.336e+01   7.808e+01   1.488e+02
 -1.577e+03  -8.763e+02  -7.361e+02  -3.568e+01   7.808e+01   1.488e+02
Element    32
  2.173e+03  -7.136e+02   4.377e+02   7.896e+02  -1.022e+02   5.120e+01
  1.422e+03  -4.672e+02   2.866e+02   5.169e+02  -1.022e+02   5.120e+01
 -6.585e-09  -2.093e-09   5.069e-08   2.469e-08  -1.022e+02   5.120e+01
 -1.422e+03   4.672e+02  -2.866e+02  -5.169e+02  -1.022e+02   5.120e+01
 -2.173e+03   7.136e+02  -4.377e+02  -7.896e+02  -1.022e+02   5.120e+01

		 *** Successful end of program ***
