

TIME =   1.000e-01

Nodal Displacements

 Node          U1          U2          U3
    1   0.000e+00   0.000e+00   0.000e+00
    2   1.233e-03   6.741e-04   8.064e-03
    3   2.114e-03   4.899e-04   3.274e-02
    4   2.010e-03   4.829e-04   7.372e-02
    5   6.617e-04   4.395e-04   1.296e-01
    6  -2.168e-03   4.036e-04   1.993e-01
    7  -6.624e-03   3.663e-04   2.815e-01
    8  -1.279e-02   3.294e-04   3.750e-01
    9  -2.067e-02   2.926e-04   4.788e-01
   10  -3.023e-02   2.558e-04   5.916e-01
   11  -4.138e-02   2.192e-04   7.122e-01
   12  -5.397e-02   1.825e-04   8.396e-01
   13  -6.785e-02   1.460e-04   9.725e-01
   14  -8.280e-02   1.094e-04   1.110e+00
   15  -9.861e-02   7.358e-05   1.251e+00
   16  -1.150e-01   3.418e-05   1.393e+00
   17  -1.318e-01   1.221e-05   1.537e+00
   18   0.000e+00   0.000e+00   0.000e+00
   19   1.233e-03  -6.741e-04   8.064e-03
   20   2.114e-03  -4.899e-04   3.274e-02
   21   2.010e-03  -4.829e-04   7.372e-02
   22   6.617e-04  -4.395e-04   1.296e-01
   23  -2.168e-03  -4.036e-04   1.993e-01
   24  -6.624e-03  -3.663e-04   2.815e-01
   25  -1.279e-02  -3.294e-04   3.750e-01
   26  -2.067e-02  -2.926e-04   4.788e-01
   27  -3.023e-02  -2.558e-04   5.916e-01
   28  -4.138e-02  -2.192e-04   7.122e-01
   29  -5.397e-02  -1.825e-04   8.396e-01
   30  -6.785e-02  -1.460e-04   9.725e-01
   31  -8.280e-02  -1.094e-04   1.110e+00
   32  -9.861e-02  -7.358e-05   1.251e+00
   33  -1.150e-01  -3.418e-05   1.393e+00
   34  -1.318e-01  -1.221e-05   1.537e+00
   35   0.000e+00   0.000e+00   0.000e+00
   36  -1.338e-03  -6.757e-04   8.022e-03
   37  -3.192e-03  -4.909e-04   3.260e-02
   38  -5.767e-03  -4.839e-04   7.341e-02
   39  -9.410e-03  -4.402e-04   1.291e-01
   40  -1.434e-02  -4.042e-04   1.985e-01
   41  -2.071e-02  -3.667e-04   2.805e-01
   42  -2.860e-02  -3.296e-04   3.738e-01
   43  -3.802e-02  -2.926e-04   4.773e-01
   44  -4.893e-02  -2.558e-04   5.898e-01
   45  -6.124e-02  -2.190e-04   7.102e-01
   46  -7.482e-02  -1.823e-04   8.374e-01
   47  -8.950e-02  -1.457e-04   9.701e-01
   48  -1.051e-01  -1.090e-04   1.107e+00
   49  -1.213e-01  -7.315e-05   1.248e+00
   50  -1.380e-01  -3.372e-05   1.391e+00
   51  -1.549e-01  -1.175e-05   1.535e+00
   52   0.000e+00   0.000e+00   0.000e+00
   53  -1.338e-03   6.757e-04   8.022e-03
   54  -3.192e-03   4.909e-04   3.260e-02
   55  -5.767e-03   4.839e-04   7.341e-02
   56  -9.410e-03   4.402e-04   1.291e-01
   57  -1.434e-02   4.042e-04   1.985e-01
   58  -2.071e-02   3.667e-04   2.805e-01
   59  -2.860e-02   3.296e-04   3.738e-01
   60  -3.802e-02   2.926e-04   4.773e-01
   61  -4.893e-02   2.558e-04   5.898e-01
   62  -6.124e-02   2.190e-04   7.102e-01
   63  -7.482e-02   1.823e-04   8.374e-01
   64  -8.950e-02   1.457e-04   9.701e-01
   65  -1.051e-01   1.090e-04   1.107e+00
   66  -1.213e-01   7.315e-05   1.248e+00
   67  -1.380e-01   3.372e-05   1.391e+00
   68  -1.549e-01   1.175e-05   1.535e+00

Element Stress

        S11         S22         S33         S12         S23         S13
Element     1
  2.550e+04   7.276e+03   2.586e+03  -2.049e-11   8.025e-12   4.017e+01
  1.535e+04   3.430e+03   3.566e+02  -1.341e-11   4.969e-12   4.009e+01
 -1.320e+03  -1.307e+03  -1.315e+03   1.358e-14  -8.233e-13   3.995e+01
 -1.464e+04  -2.699e+03   3.566e+02   1.342e-11  -6.616e-12   3.980e+01
 -2.031e+04  -2.086e+03   2.586e+03   2.049e-11  -9.671e-12   3.973e+01
Element     2
  2.482e+04   2.445e+03   3.397e+03  -3.230e-11  -1.665e-11   4.002e+01
  1.449e+04  -1.469e+02   4.723e+02  -2.130e-11  -1.076e-11   4.001e+01
 -1.726e+03  -1.707e+03  -1.721e+03  -4.649e-13   4.075e-13   4.000e+01
 -1.354e+04   1.125e+03   4.723e+02   2.036e-11   1.157e-11   3.999e+01
 -1.800e+04   4.387e+03   3.397e+03   3.134e-11   1.746e-11   3.998e+01
Element     3
  2.261e+04   2.902e+03   2.690e+03  -1.974e-11  -5.560e-12   3.987e+01
  1.341e+04   5.150e+02   3.728e+02  -1.266e-11  -3.680e-12   3.989e+01
 -1.367e+03  -1.353e+03  -1.365e+03   7.542e-13  -1.164e-13   3.992e+01
 -1.266e+04   2.573e+02   3.728e+02   1.415e-11   3.447e-12   3.995e+01
 -1.721e+04   2.509e+03   2.690e+03   2.122e-11   5.327e-12   3.997e+01
Element     4
  2.077e+04   2.317e+03   2.347e+03  -8.453e-12   1.677e-11   3.986e+01
  1.238e+04   3.088e+02   3.258e+02  -5.461e-12   1.285e-11   3.986e+01
 -1.191e+03  -1.180e+03  -1.190e+03   2.099e-13   5.417e-12   3.985e+01
 -1.172e+04   3.660e+02   3.258e+02   5.882e-12  -2.017e-12   3.984e+01
 -1.606e+04   2.404e+03   2.347e+03   8.874e-12  -5.938e-12   3.984e+01
Element     5
  1.891e+04   1.991e+03   1.973e+03  -1.718e-12   3.782e-11   3.973e+01
  1.136e+04   2.877e+02   2.736e+02  -9.969e-13   3.003e-11   3.974e+01
 -9.998e+02  -9.924e+02  -1.001e+03   3.762e-13   1.528e-11   3.976e+01
 -1.080e+04   2.791e+02   2.736e+02   1.756e-12   5.283e-13   3.978e+01
 -1.494e+04   1.978e+03   1.973e+03   2.487e-12  -7.254e-12   3.978e+01
Element     6
  1.709e+04   1.649e+03   1.643e+03   4.848e-12   2.142e-11   3.966e+01
  1.034e+04   2.339e+02   2.280e+02   3.963e-12   1.365e-11   3.966e+01
 -8.308e+02  -8.261e+02  -8.333e+02   2.289e-12  -1.084e-12   3.966e+01
 -9.869e+03   2.382e+02   2.280e+02   6.196e-13  -1.582e-11   3.966e+01
 -1.378e+04   1.656e+03   1.643e+03  -2.594e-13  -2.359e-11   3.966e+01
Element     7
  1.530e+04   1.348e+03   1.342e+03  -4.052e-12  -1.884e-11   3.954e+01
  9.323e+03   1.922e+02   1.861e+02  -4.620e-12  -1.903e-11   3.955e+01
 -6.767e+02  -6.746e+02  -6.806e+02  -5.706e-12  -1.939e-11   3.955e+01
 -8.938e+03   1.933e+02   1.861e+02  -6.803e-12  -1.974e-11   3.956e+01
 -1.260e+04   1.350e+03   1.342e+03  -7.387e-12  -1.993e-11   3.957e+01
Element     8
  1.355e+04   1.077e+03   1.072e+03   1.051e-12  -3.532e-11   3.944e+01
  8.317e+03   1.534e+02   1.487e+02   4.040e-12  -3.541e-11   3.945e+01
 -5.388e+02  -5.389e+02  -5.437e+02   9.705e-12  -3.556e-11   3.945e+01
 -8.005e+03   1.546e+02   1.487e+02   1.537e-11  -3.572e-11   3.945e+01
 -1.138e+04   1.079e+03   1.072e+03   1.836e-11  -3.580e-11   3.946e+01
Element     9
  1.183e+04   8.369e+02   8.328e+02  -7.927e-12  -7.513e-11   3.934e+01
  7.317e+03   1.192e+02   1.155e+02  -9.302e-12  -5.930e-11   3.934e+01
 -4.166e+02  -4.188e+02  -4.225e+02  -1.192e-11  -2.931e-11   3.935e+01
 -7.071e+03   1.201e+02   1.155e+02  -1.455e-11   6.823e-13   3.935e+01
 -1.015e+04   8.382e+02   8.328e+02  -1.594e-11   1.650e-11   3.936e+01
Element    10
  1.015e+04   6.274e+02   6.244e+02  -6.951e-11  -2.147e-10   3.925e+01
  6.324e+03   8.938e+01   8.664e+01  -5.120e-11  -1.844e-10   3.925e+01
 -3.100e+02  -3.140e+02  -3.167e+02  -1.651e-11  -1.269e-10   3.925e+01
 -6.134e+03   9.004e+01   8.664e+01   1.815e-11  -6.944e-11   3.925e+01
 -8.881e+03   6.285e+02   6.244e+02   3.643e-11  -3.913e-11   3.926e+01
Element    11
  8.501e+03   4.486e+02   4.464e+02  -1.187e-10  -5.193e-10   3.916e+01
  5.337e+03   6.391e+01   6.193e+01  -9.977e-11  -4.257e-10   3.916e+01
 -2.190e+02  -2.244e+02  -2.264e+02  -6.394e-11  -2.484e-10   3.916e+01
 -5.196e+03   6.432e+01   6.193e+01  -2.815e-11  -7.111e-11   3.917e+01
 -7.589e+03   4.492e+02   4.464e+02  -9.292e-12   2.244e-11   3.917e+01
Element    12
  6.886e+03   2.997e+02   2.984e+02  -5.578e-11  -2.392e-10   3.908e+01
  4.356e+03   4.260e+01   4.141e+01  -5.405e-11  -2.400e-10   3.908e+01
 -1.433e+02  -1.500e+02  -1.514e+02  -5.076e-11  -2.414e-10   3.909e+01
 -4.256e+03   4.314e+01   4.141e+01  -4.748e-11  -2.429e-10   3.909e+01
 -6.270e+03   3.005e+02   2.984e+02  -4.576e-11  -2.436e-10   3.909e+01
Element    13
  5.303e+03   1.819e+02   1.803e+02  -1.098e-10  -1.791e-10   3.902e+01
  3.381e+03   2.633e+01   2.502e+01  -7.882e-11  -1.193e-10   3.902e+01
 -8.294e+01  -9.064e+01  -9.143e+01  -2.016e-11  -5.915e-12   3.902e+01
 -3.313e+03   2.545e+01   2.502e+01   3.846e-11   1.075e-10   3.903e+01
 -4.924e+03   1.806e+02   1.803e+02   6.938e-11   1.673e-10   3.903e+01
Element    14
  3.752e+03   8.845e+01   9.209e+01  -3.872e-11  -9.830e-11   3.897e+01
  2.412e+03   1.051e+01   1.279e+01  -2.059e-11  -3.688e-11   3.897e+01
 -3.786e+01  -4.630e+01  -4.669e+01   1.375e-11   7.955e-11   3.897e+01
 -2.368e+03   1.594e+01   1.279e+01   4.809e-11   1.960e-10   3.898e+01
 -3.549e+03   9.674e+01   9.209e+01   6.619e-11   2.574e-10   3.898e+01
Element    15
  2.232e+03   5.234e+01   3.261e+01  -6.456e-11  -2.045e-10   3.894e+01
  1.447e+03   1.749e+01   4.534e+00  -6.306e-11  -2.063e-10   3.894e+01
 -7.449e+00  -1.639e+01  -1.652e+01  -6.021e-11  -2.097e-10   3.894e+01
 -1.420e+03  -8.126e+00   4.534e+00  -5.737e-11  -2.131e-10   3.894e+01
 -2.148e+03   1.322e+01   3.261e+01  -5.587e-11  -2.149e-10   3.894e+01
Element    16
  7.436e+02  -9.058e+01   4.517e+00   8.589e-11  -3.326e-10   3.892e+01
  4.876e+02  -6.162e+01   6.408e-01   4.938e-11  -3.893e-10   3.892e+01
  6.927e+00  -2.270e+00  -2.266e+00  -1.984e-11  -4.968e-10   3.892e+01
 -4.679e+02   6.290e+01   6.408e-01  -8.904e-11  -6.043e-10   3.892e+01
 -7.161e+02   9.962e+01   4.517e+00  -1.255e-10  -6.609e-10   3.892e+01



TIME =   2.000e-01

Nodal Displacements

 Node          U1          U2          U3
    1   0.000e+00   0.000e+00   0.000e+00
    2   2.277e-03   1.295e-03   1.554e-02
    3   3.099e-03   9.372e-04   6.302e-02
    4   5.174e-04   9.217e-04   1.417e-01
    5  -6.468e-03   8.361e-04   2.486e-01
    6  -1.868e-02   7.656e-04   3.813e-01
    7  -3.661e-02   6.928e-04   5.375e-01
    8  -6.050e-02   6.212e-04   7.146e-01
    9  -9.037e-02   5.503e-04   9.102e-01
   10  -1.260e-01   4.800e-04   1.122e+00
   11  -1.671e-01   4.103e-04   1.348e+00
   12  -2.131e-01   3.412e-04   1.586e+00
   13  -2.634e-01   2.726e-04   1.834e+00
   14  -3.173e-01   2.041e-04   2.089e+00
   15  -3.740e-01   1.373e-04   2.350e+00
   16  -4.326e-01   6.395e-05   2.615e+00
   17  -4.923e-01   2.312e-05   2.882e+00
   18   0.000e+00   0.000e+00   0.000e+00
   19   2.277e-03  -1.295e-03   1.554e-02
   20   3.099e-03  -9.372e-04   6.302e-02
   21   5.174e-04  -9.217e-04   1.417e-01
   22  -6.468e-03  -8.361e-04   2.486e-01
   23  -1.868e-02  -7.656e-04   3.813e-01
   24  -3.661e-02  -6.928e-04   5.375e-01
   25  -6.050e-02  -6.212e-04   7.146e-01
   26  -9.037e-02  -5.503e-04   9.102e-01
   27  -1.260e-01  -4.800e-04   1.122e+00
   28  -1.671e-01  -4.103e-04   1.348e+00
   29  -2.131e-01  -3.412e-04   1.586e+00
   30  -2.634e-01  -2.726e-04   1.834e+00
   31  -3.173e-01  -2.041e-04   2.089e+00
   32  -3.740e-01  -1.373e-04   2.350e+00
   33  -4.326e-01  -6.395e-05   2.615e+00
   34  -4.923e-01  -2.312e-05   2.882e+00
   35   0.000e+00   0.000e+00   0.000e+00
   36  -2.665e-03  -1.301e-03   1.539e-02
   37  -7.077e-03  -9.411e-04   6.248e-02
   38  -1.436e-02  -9.251e-04   1.405e-01
   39  -2.567e-02  -8.385e-04   2.467e-01
   40  -4.181e-02  -7.674e-04   3.786e-01
   41  -6.328e-02  -6.939e-04   5.338e-01
   42  -9.033e-02  -6.219e-04   7.100e-01
   43  -1.230e-01  -5.504e-04   9.047e-01
   44  -1.611e-01  -4.797e-04   1.116e+00
   45  -2.042e-01  -4.096e-04   1.341e+00
   46  -2.520e-01  -3.402e-04   1.578e+00
   47  -3.037e-01  -2.713e-04   1.825e+00
   48  -3.587e-01  -2.026e-04   2.080e+00
   49  -4.161e-01  -1.357e-04   2.341e+00
   50  -4.752e-01  -6.227e-05   2.605e+00
   51  -5.351e-01  -2.140e-05   2.872e+00
   52   0.000e+00   0.000e+00   0.000e+00
   53  -2.665e-03   1.301e-03   1.539e-02
   54  -7.077e-03   9.411e-04   6.248e-02
   55  -1.436e-02   9.251e-04   1.405e-01
   56  -2.567e-02   8.385e-04   2.467e-01
   57  -4.181e-02   7.674e-04   3.786e-01
   58  -6.328e-02   6.939e-04   5.338e-01
   59  -9.033e-02   6.219e-04   7.100e-01
   60  -1.230e-01   5.504e-04   9.047e-01
   61  -1.611e-01   4.797e-04   1.116e+00
   62  -2.042e-01   4.096e-04   1.341e+00
   63  -2.520e-01   3.402e-04   1.578e+00
   64  -3.037e-01   2.713e-04   1.825e+00
   65  -3.587e-01   2.026e-04   2.080e+00
   66  -4.161e-01   1.357e-04   2.341e+00
   67  -4.752e-01   6.227e-05   2.605e+00
   68  -5.351e-01   2.140e-05   2.872e+00

Element Stress

        S11         S22         S33         S12         S23         S13
Element     1
  5.363e+04   1.859e+04   9.560e+03  -2.847e-11   1.094e-11   8.043e+01
  3.015e+04   7.238e+03   1.319e+03  -1.886e-11   8.298e-12   8.015e+01
 -4.881e+03  -4.833e+03  -4.863e+03  -6.583e-13   3.291e-12   7.962e+01
 -2.751e+04  -4.537e+03   1.319e+03   1.751e-11  -1.716e-12   7.908e+01
 -3.445e+04   6.017e+02   9.560e+03   2.709e-11  -4.357e-12   7.880e+01
Element     2
  5.359e+04   1.068e+04   1.250e+04  -4.143e-11   1.021e-11   8.007e+01
  2.862e+04   5.598e+02   1.738e+03  -2.703e-11   9.916e-12   8.005e+01
 -6.351e+03  -6.282e+03  -6.335e+03   2.582e-13   9.365e-12   8.000e+01
 -2.512e+04   3.038e+03   1.738e+03   2.751e-11   8.815e-12   7.995e+01
 -2.850e+04   1.447e+04   1.250e+04   4.187e-11   8.525e-12   7.992e+01
Element     3
  4.794e+04   1.026e+04   9.835e+03  -3.693e-11   1.924e-11   7.922e+01
  2.629e+04   1.651e+03   1.363e+03  -2.451e-11   2.084e-11   7.929e+01
 -4.996e+03  -4.947e+03  -4.991e+03  -9.892e-13   2.389e-11   7.941e+01
 -2.354e+04   1.172e+03   1.363e+03   2.250e-11   2.693e-11   7.954e+01
 -2.818e+04   9.525e+03   9.835e+03   3.488e-11   2.854e-11   7.961e+01
Element     4
  4.366e+04   8.482e+03   8.531e+03  -1.474e-11   3.296e-11   7.894e+01
  2.417e+04   1.163e+03   1.184e+03  -5.457e-12   3.240e-11   7.892e+01
 -4.327e+03  -4.288e+03  -4.326e+03   1.212e-11   3.134e-11   7.889e+01
 -2.177e+04   1.289e+03   1.184e+03   2.966e-11   3.028e-11   7.886e+01
 -2.652e+04   8.675e+03   8.531e+03   3.891e-11   2.972e-11   7.884e+01
Element     5
  3.931e+04   7.169e+03   7.125e+03   1.060e-11   1.095e-10   7.814e+01
  2.205e+04   1.025e+03   9.880e+02   1.341e-11   9.375e-11   7.817e+01
 -3.609e+03  -3.583e+03  -3.615e+03   1.875e-11   6.396e-11   7.823e+01
 -2.004e+04   1.021e+03   9.880e+02   2.410e-11   3.418e-11   7.830e+01
 -2.498e+04   7.162e+03   7.125e+03   2.694e-11   1.846e-11   7.833e+01
Element     6
  3.516e+04   5.915e+03   5.896e+03  -3.157e-11  -5.595e-12   7.751e+01
  1.997e+04   8.381e+02   8.181e+02  -1.991e-11  -6.620e-12   7.751e+01
 -2.980e+03  -2.964e+03  -2.990e+03   2.165e-12  -8.563e-12   7.752e+01
 -1.829e+04   8.563e+02   8.181e+02   2.422e-11  -1.051e-11   7.752e+01
 -2.329e+04   5.943e+03   5.896e+03   3.585e-11  -1.153e-11   7.752e+01
Element     7
  3.116e+04   4.805e+03   4.785e+03  -1.625e-10  -1.438e-10   7.672e+01
  1.793e+04   6.825e+02   6.637e+02  -1.228e-10  -1.181e-10   7.674e+01
 -2.412e+03  -2.406e+03  -2.427e+03  -4.761e-11  -6.944e-11   7.677e+01
 -1.655e+04   6.922e+02   6.637e+02   2.740e-11  -2.075e-11   7.680e+01
 -2.151e+04   4.820e+03   4.785e+03   6.691e-11   4.945e-12   7.682e+01
Element     8
  2.731e+04   3.816e+03   3.801e+03   1.483e-10   3.199e-10   7.600e+01
  1.592e+04   5.420e+02   5.274e+02   1.254e-10   2.600e-10   7.601e+01
 -1.909e+03  -1.911e+03  -1.928e+03   8.198e-11   1.463e-10   7.602e+01
 -1.481e+04   5.502e+02   5.274e+02   3.870e-11   3.263e-11   7.604e+01
 -1.963e+04   3.829e+03   3.801e+03   1.591e-11  -2.733e-11   7.604e+01
Element     9
  2.361e+04   2.950e+03   2.938e+03   3.402e-11   2.603e-10   7.527e+01
  1.394e+04   4.190e+02   4.075e+02  -1.415e-11   1.419e-10   7.528e+01
 -1.468e+03  -1.477e+03  -1.490e+03  -1.053e-10  -8.247e-11   7.530e+01
 -1.307e+04   4.249e+02   4.075e+02  -1.962e-10  -3.068e-10   7.532e+01
 -1.766e+04   2.959e+03   2.938e+03  -2.440e-10  -4.252e-10   7.533e+01
Element    10
  2.005e+04   2.201e+03   2.192e+03   6.597e-11   2.020e-10   7.460e+01
  1.200e+04   3.127e+02   3.041e+02   6.766e-11   1.401e-10   7.461e+01
 -1.086e+03  -1.102e+03  -1.112e+03   7.094e-11   2.272e-11   7.462e+01
 -1.134e+04   3.171e+02   3.041e+02   7.432e-11  -9.466e-11   7.463e+01
 -1.560e+04   2.207e+03   2.192e+03   7.615e-11  -1.566e-10   7.464e+01
Element    11
  1.663e+04   1.566e+03   1.560e+03   2.811e-10   4.790e-10   7.399e+01
  1.009e+04   2.226e+02   2.164e+02   1.995e-10   3.672e-10   7.400e+01
 -7.634e+02  -7.844e+02  -7.912e+02   4.499e-11   1.550e-10   7.401e+01
 -9.597e+03   2.256e+02   2.164e+02  -1.093e-10  -5.707e-11   7.402e+01
 -1.344e+04   1.571e+03   1.560e+03  -1.907e-10  -1.690e-10   7.403e+01
Element    12
  1.335e+04   1.043e+03   1.039e+03   2.488e-10   6.598e-10   7.346e+01
  8.211e+03   1.480e+02   1.442e+02   1.775e-10   4.838e-10   7.347e+01
 -4.971e+02  -5.225e+02  -5.270e+02   4.255e-11   1.504e-10   7.348e+01
 -7.858e+03   1.505e+02   1.442e+02  -9.218e-11  -1.831e-10   7.349e+01
 -1.120e+04   1.047e+03   1.039e+03  -1.632e-10  -3.590e-10   7.349e+01
Element    13
  1.019e+04   6.297e+02   6.258e+02   7.827e-11   2.254e-10   7.302e+01
  6.356e+03   9.018e+01   8.685e+01   1.184e-10   2.125e-10   7.303e+01
 -2.858e+02  -3.147e+02  -3.174e+02   1.945e-10   1.882e-10   7.304e+01
 -6.117e+03   8.958e+01   8.685e+01   2.705e-10   1.638e-10   7.304e+01
 -8.866e+03   6.288e+02   6.258e+02   3.105e-10   1.509e-10   7.305e+01
Element    14
  7.147e+03   3.125e+02   3.190e+02   1.426e-10   4.906e-11   7.269e+01
  4.525e+03   4.043e+01   4.429e+01   1.651e-10   1.721e-10   7.269e+01
 -1.289e+02  -1.604e+02  -1.617e+02   2.078e-10   4.054e-10   7.270e+01
 -4.370e+03   5.117e+01   4.429e+01   2.503e-10   6.387e-10   7.270e+01
 -6.440e+03   3.289e+02   3.190e+02   2.727e-10   7.618e-10   7.270e+01
Element    15
  4.219e+03   1.494e+02   1.128e+02  -3.981e-10  -7.658e-10   7.246e+01
  2.715e+03   3.981e+01   1.568e+01  -3.397e-10  -6.498e-10   7.246e+01
 -2.348e+01  -5.669e+01  -5.714e+01  -2.290e-10  -4.300e-10   7.247e+01
 -2.616e+03  -7.437e+00   1.568e+01  -1.183e-10  -2.103e-10   7.247e+01
 -3.925e+03   7.727e+01   1.128e+02  -5.992e-11  -9.434e-11   7.247e+01
Element    16
  1.406e+03  -1.612e+02   1.561e+01  -5.529e-10  -6.333e-10   7.235e+01
  9.244e+02  -1.135e+02   2.214e+00  -4.996e-10  -5.176e-10   7.235e+01
  2.624e+01  -7.843e+00  -7.831e+00  -3.985e-10  -2.982e-10   7.235e+01
 -8.518e+02   1.180e+02   2.214e+00  -2.975e-10  -7.889e-11   7.235e+01
 -1.307e+03   1.924e+02   1.561e+01  -2.442e-10   3.682e-11   7.235e+01



TIME =   3.000e-01

Nodal Displacements

 Node          U1          U2          U3
    1   0.000e+00   0.000e+00   0.000e+00
    2   3.119e-03   1.841e-03   2.215e-02
    3   3.197e-03   1.324e-03   8.964e-02
    4  -3.417e-03   1.297e-03   2.010e-01
    5  -1.870e-02   1.171e-03   3.518e-01
    6  -4.419e-02   1.068e-03   5.381e-01
    7  -8.076e-02   9.621e-04   7.562e-01
    8  -1.288e-01   8.592e-04   1.002e+00
    9  -1.881e-01   7.581e-04   1.273e+00
   10  -2.584e-01   6.590e-04   1.565e+00
   11  -3.388e-01   5.616e-04   1.874e+00
   12  -4.284e-01   4.658e-04   2.199e+00
   13  -5.258e-01   3.714e-04   2.536e+00
   14  -6.298e-01   2.777e-04   2.883e+00
   15  -7.389e-01   1.867e-04   3.237e+00
   16  -8.514e-01   8.723e-05   3.595e+00
   17  -9.658e-01   3.190e-05   3.956e+00
   18   0.000e+00   0.000e+00   0.000e+00
   19   3.119e-03  -1.841e-03   2.215e-02
   20   3.197e-03  -1.324e-03   8.964e-02
   21  -3.417e-03  -1.297e-03   2.010e-01
   22  -1.870e-02  -1.171e-03   3.518e-01
   23  -4.419e-02  -1.068e-03   5.381e-01
   24  -8.076e-02  -9.621e-04   7.562e-01
   25  -1.288e-01  -8.592e-04   1.002e+00
   26  -1.881e-01  -7.581e-04   1.273e+00
   27  -2.584e-01  -6.590e-04   1.565e+00
   28  -3.388e-01  -5.616e-04   1.874e+00
   29  -4.284e-01  -4.658e-04   2.199e+00
   30  -5.258e-01  -3.714e-04   2.536e+00
   31  -6.298e-01  -2.777e-04   2.883e+00
   32  -7.389e-01  -1.867e-04   3.237e+00
   33  -8.514e-01  -8.723e-05   3.595e+00
   34  -9.658e-01  -3.190e-05   3.956e+00
   35   0.000e+00   0.000e+00   0.000e+00
   36  -3.904e-03  -1.853e-03   2.183e-02
   37  -1.122e-02  -1.331e-03   8.855e-02
   38  -2.441e-02  -1.304e-03   1.987e-01
   39  -4.568e-02  -1.176e-03   3.480e-01
   40  -7.654e-02  -1.071e-03   5.327e-01
   41  -1.179e-01  -9.641e-04   7.490e-01
   42  -1.701e-01  -8.601e-04   9.934e-01
   43  -2.331e-01  -7.581e-04   1.262e+00
   44  -3.065e-01  -6.581e-04   1.552e+00
   45  -3.896e-01  -5.600e-04   1.861e+00
   46  -4.813e-01  -4.636e-04   2.184e+00
   47  -5.806e-01  -3.687e-04   2.520e+00
   48  -6.859e-01  -2.747e-04   2.866e+00
   49  -7.959e-01  -1.834e-04   3.219e+00
   50  -9.090e-01  -8.381e-05   3.577e+00
   51  -1.024e+00  -2.841e-05   3.937e+00
   52   0.000e+00   0.000e+00   0.000e+00
   53  -3.904e-03   1.853e-03   2.183e-02
   54  -1.122e-02   1.331e-03   8.855e-02
   55  -2.441e-02   1.304e-03   1.987e-01
   56  -4.568e-02   1.176e-03   3.480e-01
   57  -7.654e-02   1.071e-03   5.327e-01
   58  -1.179e-01   9.641e-04   7.490e-01
   59  -1.701e-01   8.601e-04   9.934e-01
   60  -2.331e-01   7.581e-04   1.262e+00
   61  -3.065e-01   6.581e-04   1.552e+00
   62  -3.896e-01   5.600e-04   1.861e+00
   63  -4.813e-01   4.636e-04   2.184e+00
   64  -5.806e-01   3.687e-04   2.520e+00
   65  -6.859e-01   2.747e-04   2.866e+00
   66  -7.959e-01   1.834e-04   3.219e+00
   67  -9.090e-01   8.381e-05   3.577e+00
   68  -1.024e+00   2.841e-05   3.937e+00

Element Stress

        S11         S22         S33         S12         S23         S13
Element     1
  8.200e+04   3.217e+04   1.933e+04   5.818e-11  -4.273e-11   1.205e+02
  4.366e+04   1.109e+04   2.666e+03   3.776e-11  -2.929e-11   1.200e+02
 -9.867e+03  -9.771e+03  -9.830e+03  -8.955e-13  -3.811e-12   1.189e+02
 -3.831e+04  -5.632e+03   2.666e+03  -3.946e-11   2.167e-11   1.178e+02
 -4.321e+04   6.625e+03   1.933e+04  -5.976e-11   3.511e-11   1.172e+02
Element     2
  8.332e+04   2.251e+04   2.511e+04   7.301e-11   4.250e-11   1.201e+02
  4.156e+04   1.818e+03   3.491e+03   4.697e-11   2.692e-11   1.201e+02
 -1.275e+04  -1.262e+04  -1.272e+04  -2.334e-12  -2.615e-12   1.200e+02
 -3.453e+04   5.409e+03   3.491e+03  -5.156e-11  -3.215e-11   1.199e+02
 -3.292e+04   2.799e+04   2.511e+04  -7.750e-11  -4.773e-11   1.198e+02
Element     3
  7.331e+04   2.017e+04   1.956e+04   5.226e-11  -7.431e-12   1.178e+02
  3.787e+04   3.132e+03   2.711e+03   3.187e-11  -1.430e-11   1.180e+02
 -9.937e+03  -9.841e+03  -9.929e+03  -6.691e-12  -2.732e-11   1.182e+02
 -3.239e+04   2.484e+03   2.711e+03  -4.515e-11  -4.033e-11   1.185e+02
 -3.401e+04   1.918e+04   1.956e+04  -6.540e-11  -4.720e-11   1.186e+02
Element     4
  6.617e+04   1.676e+04   1.682e+04   5.547e-12   6.043e-11   1.168e+02
  3.462e+04   2.312e+03   2.335e+03  -9.804e-13   4.311e-11   1.167e+02
 -8.531e+03  -8.458e+03  -8.531e+03  -1.336e-11   1.028e-11   1.167e+02
 -2.988e+04   2.524e+03   2.335e+03  -2.573e-11  -2.256e-11   1.166e+02
 -3.235e+04   1.708e+04   1.682e+04  -3.226e-11  -3.988e-11   1.166e+02
Element     5
  5.893e+04   1.399e+04   1.392e+04  -6.377e-11  -2.078e-10   1.145e+02
  3.138e+04   1.991e+03   1.931e+03  -4.989e-11  -1.633e-10   1.146e+02
 -7.051e+03  -7.003e+03  -7.065e+03  -2.368e-11  -7.889e-11   1.147e+02
 -2.744e+04   2.008e+03   1.931e+03   2.364e-12   5.512e-12   1.149e+02
 -3.092e+04   1.402e+04   1.392e+04   1.604e-11   5.004e-11   1.149e+02
Element     6
  5.217e+04   1.145e+04   1.142e+04   3.232e-11   2.567e-10   1.126e+02
  2.825e+04   1.619e+03   1.585e+03   3.467e-11   2.193e-10   1.126e+02
 -5.769e+03  -5.742e+03  -5.792e+03   3.903e-11   1.484e-10   1.126e+02
 -2.499e+04   1.663e+03   1.585e+03   4.329e-11   7.755e-11   1.126e+02
 -2.917e+04   1.152e+04   1.142e+04   4.550e-11   4.016e-11   1.126e+02
Element     7
  4.575e+04   9.220e+03   9.189e+03   3.572e-11   4.003e-10   1.104e+02
  2.521e+04   1.306e+03   1.274e+03   5.085e-11   3.348e-10   1.104e+02
 -4.629e+03  -4.621e+03  -4.661e+03   7.970e-11   2.105e-10   1.105e+02
 -2.256e+04   1.333e+03   1.274e+03   1.088e-10   8.623e-11   1.105e+02
 -2.722e+04   9.261e+03   9.189e+03   1.242e-10   2.067e-11   1.106e+02
Element     8
  3.970e+04   7.263e+03   7.240e+03   8.702e-11  -1.137e-10   1.083e+02
  2.226e+04   1.029e+03   1.004e+03   4.178e-11  -7.462e-11   1.083e+02
 -3.632e+03  -3.640e+03  -3.672e+03  -4.403e-11  -4.699e-13   1.083e+02
 -2.014e+04   1.051e+03   1.004e+03  -1.299e-10   7.368e-11   1.083e+02
 -2.507e+04   7.297e+03   7.240e+03  -1.753e-10   1.128e-10   1.084e+02
Element     9
  3.399e+04   5.571e+03   5.552e+03   3.500e-10   1.069e-09   1.062e+02
  1.940e+04   7.896e+02   7.702e+02   2.768e-10   7.703e-10   1.062e+02
 -2.769e+03  -2.792e+03  -2.816e+03   1.388e-10   2.047e-10   1.063e+02
 -1.774e+04   8.055e+02   7.702e+02   1.827e-12  -3.609e-10   1.063e+02
 -2.274e+04   5.596e+03   5.552e+03  -7.001e-11  -6.592e-10   1.063e+02
Element    10
  2.860e+04   4.128e+03   4.114e+03   1.012e-10  -5.187e-10   1.043e+02
  1.662e+04   5.852e+02   5.708e+02   4.172e-11  -5.033e-10   1.043e+02
 -2.034e+03  -2.069e+03  -2.087e+03  -7.099e-11  -4.740e-10   1.043e+02
 -1.535e+04   5.968e+02   5.708e+02  -1.836e-10  -4.448e-10   1.044e+02
 -2.023e+04   4.146e+03   4.114e+03  -2.430e-10  -4.294e-10   1.044e+02
Element    11
  2.352e+04   2.920e+03   2.910e+03  -4.964e-10  -8.977e-10   1.026e+02
  1.391e+04   4.139e+02   4.038e+02  -3.965e-10  -7.189e-10   1.026e+02
 -1.419e+03  -1.463e+03  -1.476e+03  -2.075e-10  -3.798e-10   1.026e+02
 -1.298e+04   4.221e+02   4.038e+02  -1.875e-11  -4.077e-11   1.026e+02
 -1.756e+04   2.933e+03   2.910e+03   8.070e-11   1.381e-10   1.027e+02
Element    12
  1.872e+04   1.934e+03   1.928e+03  -1.077e-09  -2.218e-09   1.011e+02
  1.128e+04   2.738e+02   2.676e+02  -8.673e-10  -1.761e-09   1.011e+02
 -9.166e+02  -9.696e+02  -9.780e+02  -4.712e-10  -8.946e-10   1.011e+02
 -1.061e+04   2.802e+02   2.676e+02  -7.602e-11  -2.813e-11   1.012e+02
 -1.472e+04   1.944e+03   1.928e+03   1.320e-10   4.290e-10   1.012e+02
Element    13
  1.417e+04   1.162e+03   1.156e+03  -7.360e-10  -1.929e-09   9.989e+01
  8.704e+03   1.655e+02   1.605e+02  -5.959e-10  -1.557e-09   9.990e+01
 -5.220e+02  -5.815e+02  -5.865e+02  -3.308e-10  -8.520e-10   9.991e+01
 -8.249e+03   1.666e+02   1.605e+02  -6.604e-11  -1.467e-10   9.993e+01
 -1.172e+04   1.164e+03   1.156e+03   7.346e-11   2.253e-10   9.994e+01
Element    14
  9.877e+03   5.786e+02   5.875e+02  -6.526e-10  -9.712e-10   9.896e+01
  6.185e+03   7.647e+01   8.158e+01  -4.357e-10  -6.546e-10   9.897e+01
 -2.310e+02  -2.954e+02  -2.979e+02  -2.477e-11  -5.439e-11   9.898e+01
 -5.886e+03   9.223e+01   8.158e+01   3.856e-10   5.458e-10   9.899e+01
 -8.562e+03   6.027e+02   5.875e+02   6.019e-10   8.624e-10   9.899e+01
Element    15
  5.796e+03   2.567e+02   2.073e+02   5.549e-10   4.366e-10   9.834e+01
  3.711e+03   6.141e+01   2.881e+01   4.806e-10   3.323e-10   9.834e+01
 -3.668e+01  -1.042e+02  -1.050e+02   3.397e-10   1.345e-10   9.835e+01
 -3.516e+03  -1.914e+00   2.881e+01   1.990e-10  -6.318e-11   9.835e+01
 -5.243e+03   1.600e+02   2.073e+02   1.247e-10  -1.675e-10   9.836e+01
Element    16
  1.936e+03  -2.110e+02   2.865e+01   9.178e-10   1.263e-09   9.802e+01
  1.276e+03  -1.528e+02   4.065e+00   7.357e-10   9.311e-10   9.802e+01
  5.471e+01  -1.440e+01  -1.437e+01   3.905e-10   3.019e-10   9.802e+01
 -1.130e+03   1.610e+02   4.065e+00   4.548e-11  -3.273e-10   9.802e+01
 -1.740e+03   2.683e+02   2.865e+01  -1.365e-10  -6.592e-10   9.803e+01



TIME =   4.000e-01

Nodal Displacements

 Node          U1          U2          U3
    1   0.000e+00   0.000e+00   0.000e+00
    2   3.790e-03   2.313e-03   2.788e-02
    3   2.702e-03   1.651e-03   1.126e-01
    4  -8.759e-03   1.612e-03   2.519e-01
    5  -3.360e-02   1.447e-03   4.396e-01
    6  -7.401e-02   1.312e-03   6.703e-01
    7  -1.312e-01   1.176e-03   9.387e-01
    8  -2.054e-01   1.045e-03   1.240e+00
    9  -2.965e-01   9.183e-04   1.570e+00
   10  -4.036e-01   7.949e-04   1.923e+00
   11  -5.254e-01   6.750e-04   2.297e+00
   12  -6.603e-01   5.581e-04   2.687e+00
   13  -8.065e-01   4.440e-04   3.091e+00
   14  -9.620e-01   3.314e-04   3.505e+00
   15  -1.125e+00   2.227e-04   3.927e+00
   16  -1.292e+00   1.043e-04   4.353e+00
   17  -1.462e+00   3.857e-05   4.782e+00
   18   0.000e+00   0.000e+00   0.000e+00
   19   3.790e-03  -2.313e-03   2.788e-02
   20   2.702e-03  -1.651e-03   1.126e-01
   21  -8.759e-03  -1.612e-03   2.519e-01
   22  -3.360e-02  -1.447e-03   4.396e-01
   23  -7.401e-02  -1.312e-03   6.703e-01
   24  -1.312e-01  -1.176e-03   9.387e-01
   25  -2.054e-01  -1.045e-03   1.240e+00
   26  -2.965e-01  -9.183e-04   1.570e+00
   27  -4.036e-01  -7.949e-04   1.923e+00
   28  -5.254e-01  -6.750e-04   2.297e+00
   29  -6.603e-01  -5.581e-04   2.687e+00
   30  -8.065e-01  -4.440e-04   3.091e+00
   31  -9.620e-01  -3.314e-04   3.505e+00
   32  -1.125e+00  -2.227e-04   3.927e+00
   33  -1.292e+00  -1.043e-04   4.353e+00
   34  -1.462e+00  -3.857e-05   4.782e+00
   35   0.000e+00   0.000e+00   0.000e+00
   36  -5.030e-03  -2.332e-03   2.739e-02
   37  -1.535e-02  -1.663e-03   1.109e-01
   38  -3.491e-02  -1.622e-03   2.484e-01
   39  -6.704e-02  -1.454e-03   4.338e-01
   40  -1.139e-01  -1.317e-03   6.619e-01
   41  -1.767e-01  -1.179e-03   9.277e-01
   42  -2.558e-01  -1.046e-03   1.226e+00
   43  -3.511e-01  -9.178e-04   1.553e+00
   44  -4.617e-01  -7.932e-04   1.905e+00
   45  -5.865e-01  -6.722e-04   2.276e+00
   46  -7.238e-01  -5.545e-04   2.665e+00
   47  -8.719e-01  -4.396e-04   3.067e+00
   48  -1.029e+00  -3.266e-04   3.480e+00
   49  -1.193e+00  -2.175e-04   3.900e+00
   50  -1.361e+00  -9.891e-05   4.326e+00
   51  -1.531e+00  -3.306e-05   4.754e+00
   52   0.000e+00   0.000e+00   0.000e+00
   53  -5.030e-03   2.332e-03   2.739e-02
   54  -1.535e-02   1.663e-03   1.109e-01
   55  -3.491e-02   1.622e-03   2.484e-01
   56  -6.704e-02   1.454e-03   4.338e-01
   57  -1.139e-01   1.317e-03   6.619e-01
   58  -1.767e-01   1.179e-03   9.277e-01
   59  -2.558e-01   1.046e-03   1.226e+00
   60  -3.511e-01   9.178e-04   1.553e+00
   61  -4.617e-01   7.932e-04   1.905e+00
   62  -5.865e-01   6.722e-04   2.276e+00
   63  -7.238e-01   5.545e-04   2.665e+00
   64  -8.719e-01   4.396e-04   3.067e+00
   65  -1.029e+00   3.266e-04   3.480e+00
   66  -1.193e+00   2.175e-04   3.900e+00
   67  -1.361e+00   9.891e-05   4.326e+00
   68  -1.531e+00   3.306e-05   4.754e+00

Element Stress

        S11         S22         S33         S12         S23         S13
Element     1
  1.093e+05   4.668e+04   3.053e+04  -2.186e-08   2.964e-10   1.604e+02
  5.573e+04   1.481e+04   4.211e+03  -1.426e-08   3.369e-10   1.595e+02
 -1.559e+04  -1.543e+04  -1.553e+04   1.026e-10   4.137e-10   1.578e+02
 -4.728e+04  -6.184e+03   4.211e+03   1.443e-08   4.905e-10   1.561e+02
 -4.803e+04   1.461e+04   3.053e+04   2.197e-08   5.310e-10   1.552e+02
Element     2
  1.122e+05   3.606e+04   3.936e+04  -3.929e-08   8.622e-11   1.601e+02
  5.309e+04   3.360e+03   5.473e+03  -2.565e-08   1.199e-10   1.600e+02
 -1.999e+04  -1.978e+04  -1.994e+04   1.585e-10   1.838e-10   1.599e+02
 -4.208e+04   7.968e+03   5.473e+03   2.591e-08   2.477e-10   1.598e+02
 -3.319e+04   4.310e+04   3.936e+04   3.947e-08   2.814e-10   1.597e+02
Element     3
  9.724e+04   3.108e+04   3.032e+04  -3.196e-08  -3.811e-10   1.557e+02
  4.798e+04   4.738e+03   4.201e+03  -2.088e-08  -3.395e-10   1.559e+02
 -1.540e+04  -1.525e+04  -1.539e+04   9.207e-11  -2.606e-10   1.563e+02
 -3.947e+04   3.966e+03   4.201e+03   2.102e-08  -1.817e-10   1.567e+02
 -3.632e+04   2.990e+04   3.032e+04   3.204e-08  -1.401e-10   1.569e+02
Element     4
  8.694e+04   2.573e+04   2.582e+04  -2.609e-08  -9.851e-11   1.532e+02
  4.357e+04   3.556e+03   3.584e+03  -1.704e-08  -8.193e-11   1.532e+02
 -1.309e+04  -1.298e+04  -1.309e+04   8.664e-11  -5.050e-11   1.531e+02
 -3.629e+04   3.864e+03   3.584e+03   1.718e-08  -1.907e-11   1.530e+02
 -3.505e+04   2.620e+04   2.582e+04   2.618e-08  -2.487e-12   1.529e+02
Element     5
  7.660e+04   2.122e+04   2.114e+04  -2.135e-08  -2.304e-10   1.488e+02
  3.923e+04   3.010e+03   2.931e+03  -1.395e-08  -1.994e-10   1.489e+02
 -1.070e+04  -1.063e+04  -1.072e+04   4.594e-11  -1.407e-10   1.491e+02
 -3.322e+04   3.061e+03   2.931e+03   1.402e-08  -8.194e-11   1.493e+02
 -3.407e+04   2.130e+04   2.114e+04   2.138e-08  -5.094e-11   1.494e+02
Element     6
  6.711e+04   1.719e+04   1.716e+04  -1.689e-08  -1.602e-10   1.448e+02
  3.508e+04   2.426e+03   2.381e+03  -1.103e-08  -1.508e-10   1.448e+02
 -8.662e+03  -8.626e+03  -8.702e+03   5.226e-11  -1.330e-10   1.449e+02
 -3.017e+04   2.504e+03   2.381e+03   1.112e-08  -1.151e-10   1.449e+02
 -3.255e+04   1.731e+04   1.716e+04   1.695e-08  -1.057e-10   1.449e+02
Element     7
  5.827e+04   1.370e+04   1.367e+04  -1.321e-08  -4.219e-11   1.404e+02
  3.110e+04   1.937e+03   1.895e+03  -8.706e-09  -7.387e-11   1.404e+02
 -6.877e+03  -6.872e+03  -6.932e+03  -1.741e-10  -1.339e-10   1.405e+02
 -2.714e+04   1.988e+03   1.895e+03   8.347e-09  -1.940e-10   1.406e+02
 -3.070e+04   1.378e+04   1.367e+04   1.284e-08  -2.257e-10   1.407e+02
Element     8
  5.008e+04   1.069e+04   1.066e+04  -9.977e-09  -1.430e-11   1.362e+02
  2.729e+04   1.512e+03   1.480e+03  -6.568e-09  -3.848e-11   1.362e+02
 -5.342e+03  -5.362e+03  -5.409e+03  -1.123e-10  -8.432e-11   1.363e+02
 -2.416e+04   1.552e+03   1.480e+03   6.336e-09  -1.302e-10   1.363e+02
 -2.852e+04   1.075e+04   1.066e+04   9.734e-09  -1.543e-10   1.363e+02
Element     9
  4.249e+04   8.129e+03   8.106e+03  -7.292e-09   2.135e-10   1.321e+02
  2.365e+04   1.150e+03   1.124e+03  -4.736e-09   1.816e-10   1.322e+02
 -4.035e+03  -4.076e+03  -4.112e+03   1.048e-10   1.211e-10   1.322e+02
 -2.121e+04   1.179e+03   1.124e+03   4.941e-09   6.059e-11   1.323e+02
 -2.604e+04   8.174e+03   8.106e+03   7.491e-09   2.867e-11   1.323e+02
Element    10
  3.545e+04   5.975e+03   5.958e+03  -4.935e-09   2.376e-11   1.285e+02
  2.016e+04   8.453e+02   8.267e+02  -3.143e-09  -5.813e-12   1.285e+02
 -2.936e+03  -2.996e+03  -3.022e+03   2.520e-10  -6.187e-11   1.285e+02
 -1.831e+04   8.666e+02   8.267e+02   3.644e-09  -1.179e-10   1.285e+02
 -2.331e+04   6.008e+03   5.958e+03   5.431e-09  -1.475e-10   1.286e+02
Element    11
  2.892e+04   4.197e+03   4.185e+03  -3.025e-09   1.469e-09   1.251e+02
  1.680e+04   5.936e+02   5.806e+02  -1.838e-09   1.077e-09   1.252e+02
 -2.030e+03  -2.104e+03  -2.123e+03   4.097e-10   3.341e-10   1.252e+02
 -1.544e+04   6.086e+02   5.806e+02   2.657e-09  -4.087e-10   1.252e+02
 -2.033e+04   4.220e+03   4.185e+03   3.842e-09  -8.005e-10   1.253e+02
Element    12
  2.285e+04   2.763e+03   2.756e+03  -1.862e-09   6.791e-10   1.223e+02
  1.357e+04   3.903e+02   3.825e+02  -1.196e-09   3.348e-10   1.223e+02
 -1.299e+03  -1.386e+03  -1.398e+03   6.630e-11  -3.178e-10   1.223e+02
 -1.260e+04   4.015e+02   3.825e+02   1.328e-09  -9.704e-10   1.224e+02
 -1.712e+04   2.780e+03   2.756e+03   1.994e-09  -1.315e-09   1.224e+02
Element    13
  1.720e+04   1.651e+03   1.645e+03  -1.144e-09   6.854e-10   1.200e+02
  1.044e+04   2.343e+02   2.283e+02  -7.344e-10   4.717e-10   1.200e+02
 -7.311e+02  -8.270e+02  -8.341e+02   4.192e-11   6.665e-11   1.200e+02
 -9.774e+03   2.381e+02   2.283e+02   8.182e-10  -3.384e-10   1.200e+02
 -1.368e+04   1.657e+03   1.645e+03   1.228e-09  -5.521e-10   1.201e+02
Element    14
  1.192e+04   8.214e+02   8.324e+02  -2.621e-09  -1.988e-09   1.182e+02
  7.407e+03   1.093e+02   1.156e+02  -1.993e-09  -1.573e-09   1.182e+02
 -3.157e+02  -4.186e+02  -4.220e+02  -8.039e-10  -7.870e-10   1.183e+02
 -6.960e+03   1.297e+02   1.156e+02   3.842e-10  -8.190e-13   1.183e+02
 -1.003e+04   8.525e+02   8.324e+02   1.011e-09   4.139e-10   1.183e+02
Element    15
  6.964e+03   3.512e+02   2.929e+02  -1.555e-09  -9.982e-10   1.170e+02
  4.445e+03   7.919e+01   4.073e+01  -1.198e-09  -6.320e-10   1.171e+02
 -3.996e+01  -1.473e+02  -1.484e+02  -5.227e-10   6.206e-11   1.171e+02
 -4.146e+03   4.899e+00   4.073e+01   1.524e-10   7.562e-10   1.171e+02
 -6.159e+03   2.377e+02   2.929e+02   5.083e-10   1.122e-09   1.171e+02
Element    16
  2.334e+03  -2.444e+02   4.044e+01   1.727e-09   1.816e-09   1.164e+02
  1.545e+03  -1.808e+02   5.737e+00   1.698e-09   1.641e-09   1.164e+02
  8.925e+01  -2.032e+01  -2.029e+01   1.644e-09   1.308e-09   1.165e+02
 -1.314e+03   1.922e+02   5.737e+00   1.590e-09   9.752e-10   1.165e+02
 -2.033e+03   3.253e+02   4.044e+01   1.562e-09   7.998e-10   1.165e+02



TIME =   5.000e-01

Nodal Displacements

 Node          U1          U2          U3
    1   0.000e+00   0.000e+00   0.000e+00
    2   4.331e-03   2.724e-03   3.289e-02
    3   1.838e-03   1.929e-03   1.326e-01
    4  -1.482e-02   1.875e-03   2.957e-01
    5  -4.960e-02   1.673e-03   5.144e-01
    6  -1.053e-01   1.509e-03   7.817e-01
    7  -1.831e-01   1.345e-03   1.091e+00
    8  -2.834e-01   1.189e-03   1.436e+00
    9  -4.055e-01   1.039e-03   1.812e+00
   10  -5.481e-01   8.959e-04   2.213e+00
   11  -7.095e-01   7.578e-04   2.636e+00
   12  -8.874e-01   6.245e-04   3.075e+00
   13  -1.079e+00   4.955e-04   3.528e+00
   14  -1.283e+00   3.693e-04   3.991e+00
   15  -1.495e+00   2.480e-04   4.461e+00
   16  -1.714e+00   1.165e-04   4.936e+00
   17  -1.935e+00   4.354e-05   5.414e+00
   18   0.000e+00   0.000e+00   0.000e+00
   19   4.331e-03  -2.724e-03   3.289e-02
   20   1.838e-03  -1.929e-03   1.326e-01
   21  -1.482e-02  -1.875e-03   2.957e-01
   22  -4.960e-02  -1.673e-03   5.144e-01
   23  -1.053e-01  -1.509e-03   7.817e-01
   24  -1.831e-01  -1.345e-03   1.091e+00
   25  -2.834e-01  -1.189e-03   1.436e+00
   26  -4.055e-01  -1.039e-03   1.812e+00
   27  -5.481e-01  -8.959e-04   2.213e+00
   28  -7.095e-01  -7.578e-04   2.636e+00
   29  -8.874e-01  -6.245e-04   3.075e+00
   30  -1.079e+00  -4.955e-04   3.528e+00
   31  -1.283e+00  -3.693e-04   3.991e+00
   32  -1.495e+00  -2.480e-04   4.461e+00
   33  -1.714e+00  -1.165e-04   4.936e+00
   34  -1.935e+00  -4.354e-05   5.414e+00
   35   0.000e+00   0.000e+00   0.000e+00
   36  -6.050e-03  -2.749e-03   3.220e-02
   37  -1.933e-02  -1.945e-03   1.302e-01
   38  -4.534e-02  -1.888e-03   2.909e-01
   39  -8.843e-02  -1.682e-03   5.065e-01
   40  -1.513e-01  -1.515e-03   7.704e-01
   41  -2.354e-01  -1.348e-03   1.076e+00
   42  -3.410e-01  -1.190e-03   1.418e+00
   43  -4.675e-01  -1.038e-03   1.791e+00
   44  -6.139e-01  -8.930e-04   2.189e+00
   45  -7.783e-01  -7.536e-04   2.608e+00
   46  -9.587e-01  -6.192e-04   3.045e+00
   47  -1.153e+00  -4.893e-04   3.496e+00
   48  -1.358e+00  -3.624e-04   3.957e+00
   49  -1.571e+00  -2.407e-04   4.426e+00
   50  -1.790e+00  -1.089e-04   4.901e+00
   51  -2.012e+00  -3.586e-05   5.378e+00
   52   0.000e+00   0.000e+00   0.000e+00
   53  -6.050e-03   2.749e-03   3.220e-02
   54  -1.933e-02   1.945e-03   1.302e-01
   55  -4.534e-02   1.888e-03   2.909e-01
   56  -8.843e-02   1.682e-03   5.065e-01
   57  -1.513e-01   1.515e-03   7.704e-01
   58  -2.354e-01   1.348e-03   1.076e+00
   59  -3.410e-01   1.190e-03   1.418e+00
   60  -4.675e-01   1.038e-03   1.791e+00
   61  -6.139e-01   8.930e-04   2.189e+00
   62  -7.783e-01   7.536e-04   2.608e+00
   63  -9.587e-01   6.192e-04   3.045e+00
   64  -1.153e+00   4.893e-04   3.496e+00
   65  -1.358e+00   3.624e-04   3.957e+00
   66  -1.571e+00   2.407e-04   4.426e+00
   67  -1.790e+00   1.089e-04   4.901e+00
   68  -2.012e+00   3.586e-05   5.378e+00

Element Stress

        S11         S22         S33         S12         S23         S13
Element     1
  1.351e+05   6.136e+04   4.234e+04   1.337e-10   8.996e-12   2.001e+02
  6.650e+04   1.833e+04   5.840e+03   8.725e-11   6.554e-12   1.988e+02
 -2.162e+04  -2.141e+04  -2.154e+04  -5.140e-13   1.925e-12   1.964e+02
 -5.478e+04  -6.364e+03   5.840e+03  -8.797e-11  -2.704e-12   1.940e+02
 -5.013e+04   2.364e+04   4.234e+04  -1.340e-10  -5.145e-12   1.928e+02
Element     2
  1.395e+05   5.021e+04   5.414e+04   1.268e-10   1.544e-11   2.000e+02
  6.333e+04   5.019e+03   7.528e+03   8.407e-11   1.776e-11   1.999e+02
 -2.749e+04  -2.720e+04  -2.743e+04   3.305e-12   2.215e-11   1.997e+02
 -4.818e+04   1.056e+04   7.528e+03  -7.723e-11   2.654e-11   1.996e+02
 -3.083e+04   5.868e+04   5.414e+04  -1.196e-10   2.886e-11   1.995e+02
Element     3
  1.192e+05   4.209e+04   4.120e+04  -8.255e-11  -4.493e-11   1.928e+02
  5.673e+04   6.343e+03   5.709e+03  -5.470e-11  -2.711e-11   1.931e+02
 -2.092e+04  -2.073e+04  -2.091e+04  -2.061e-12   6.684e-12   1.937e+02
 -4.516e+04   5.485e+03   5.709e+03   5.037e-11   4.047e-11   1.942e+02
 -3.643e+04   4.078e+04   4.120e+04   7.794e-11   5.830e-11   1.945e+02
Element     4
  1.056e+05   3.458e+04   3.470e+04  -1.302e-10  -1.430e-10   1.883e+02
  5.117e+04   4.782e+03   4.818e+03  -8.428e-11  -1.033e-10   1.883e+02
 -1.759e+04  -1.745e+04  -1.760e+04   2.496e-12  -2.800e-11   1.881e+02
 -4.137e+04   5.194e+03   4.818e+03   8.895e-11   4.728e-11   1.880e+02
 -3.580e+04   3.521e+04   3.470e+04   1.344e-10   8.699e-11   1.879e+02
Element     5
  9.203e+04   2.818e+04   2.809e+04  -8.642e-11  -1.297e-10   1.810e+02
  4.574e+04   3.987e+03   3.895e+03  -3.354e-11  -4.747e-11   1.812e+02
 -1.421e+04  -1.413e+04  -1.425e+04   6.615e-11   1.084e-10   1.815e+02
 -3.775e+04   4.080e+03   3.895e+03   1.651e-10   2.642e-10   1.817e+02
 -3.550e+04   2.832e+04   2.809e+04   2.171e-10   3.465e-10   1.819e+02
Element     6
  7.982e+04   2.258e+04   2.255e+04  -1.543e-10  -4.352e-10   1.744e+02
  4.062e+04   3.181e+03   3.129e+03  -9.103e-11  -2.878e-10   1.744e+02
 -1.137e+04  -1.133e+04  -1.143e+04   2.813e-11  -8.534e-12   1.744e+02
 -3.415e+04   3.298e+03   3.129e+03   1.464e-10   2.708e-10   1.744e+02
 -3.439e+04   2.276e+04   2.255e+04   2.084e-10   4.181e-10   1.745e+02
Element     7
  6.863e+04   1.780e+04   1.776e+04   3.860e-10   4.252e-10   1.671e+02
  3.578e+04   2.512e+03   2.464e+03   3.796e-10   3.640e-10   1.672e+02
 -8.929e+03  -8.932e+03  -9.011e+03   3.678e-10   2.479e-10   1.673e+02
 -3.061e+04   2.590e+03   2.464e+03   3.564e-10   1.319e-10   1.675e+02
 -3.277e+04   1.792e+04   1.776e+04   3.506e-10   7.074e-11   1.675e+02
Element     8
  5.845e+04   1.375e+04   1.372e+04   4.052e-11   1.486e-11   1.603e+02
  3.120e+04   1.941e+03   1.904e+03   5.306e-11   4.855e-12   1.604e+02
 -6.861e+03  -6.898e+03  -6.958e+03   7.673e-11  -1.410e-11   1.604e+02
 -2.715e+04   2.001e+03   1.904e+03   1.003e-10  -3.306e-11   1.604e+02
 -3.068e+04   1.384e+04   1.372e+04   1.126e-10  -4.306e-11   1.605e+02
Element     9
  4.917e+04   1.036e+04   1.033e+04  -2.895e-10  -3.443e-10   1.538e+02
  2.689e+04   1.462e+03   1.433e+03  -2.648e-10  -2.850e-10   1.538e+02
 -5.129e+03  -5.195e+03  -5.240e+03  -2.182e-10  -1.725e-10   1.539e+02
 -2.375e+04   1.506e+03   1.433e+03  -1.719e-10  -5.997e-11   1.540e+02
 -2.819e+04   1.042e+04   1.033e+04  -1.475e-10  -6.177e-13   1.540e+02
Element    10
  4.071e+04   7.546e+03   7.528e+03  -7.114e-11   2.523e-10   1.479e+02
  2.280e+04   1.066e+03   1.045e+03  -2.347e-12   2.113e-10   1.479e+02
 -3.696e+03  -3.785e+03  -3.818e+03   1.278e-10   1.338e-10   1.480e+02
 -2.043e+04   1.097e+03   1.045e+03   2.577e-10   5.622e-11   1.480e+02
 -2.533e+04   7.595e+03   7.528e+03   3.261e-10   1.530e-11   1.480e+02
Element    11
  3.298e+04   5.260e+03   5.248e+03   5.105e-11  -3.387e-10   1.427e+02
  1.892e+04   7.426e+02   7.281e+02  -2.865e-11  -2.952e-10   1.427e+02
 -2.530e+03  -2.639e+03  -2.662e+03  -1.796e-10  -2.127e-10   1.427e+02
 -1.718e+04   7.650e+02   7.281e+02  -3.303e-10  -1.302e-10   1.428e+02
 -2.217e+04   5.294e+03   5.248e+03  -4.097e-10  -8.666e-11   1.428e+02
Element    12
  2.589e+04   3.441e+03   3.434e+03  -3.714e-10  -3.246e-10   1.382e+02
  1.522e+04   4.850e+02   4.766e+02  -3.105e-10  -2.122e-10   1.382e+02
 -1.603e+03  -1.727e+03  -1.742e+03  -1.956e-10   8.996e-13   1.383e+02
 -1.398e+04   5.016e+02   4.766e+02  -8.107e-11   2.140e-10   1.383e+02
 -1.871e+04   3.466e+03   3.434e+03  -2.082e-11   3.264e-10   1.383e+02
Element    13
  1.938e+04   2.044e+03   2.039e+03  -3.360e-10  -1.093e-09   1.346e+02
  1.168e+04   2.892e+02   2.829e+02  -1.203e-10  -8.275e-10   1.346e+02
 -8.894e+02  -1.025e+03  -1.034e+03   2.884e-10  -3.233e-10   1.346e+02
 -1.082e+04   2.963e+02   2.829e+02   6.968e-10   1.809e-10   1.347e+02
 -1.500e+04   2.055e+03   2.039e+03   9.123e-10   4.469e-10   1.347e+02
Element    14
  1.337e+04   1.014e+03   1.028e+03  -1.374e-09  -5.474e-10   1.319e+02
  8.274e+03   1.353e+02   1.427e+02  -1.199e-09  -2.947e-10   1.319e+02
 -3.725e+02  -5.167e+02  -5.210e+02  -8.669e-10   1.843e-10   1.319e+02
 -7.688e+03   1.598e+02   1.427e+02  -5.360e-10   6.632e-10   1.319e+02
 -1.101e+04   1.052e+03   1.028e+03  -3.618e-10   9.159e-10   1.319e+02
Element    15
  7.794e+03   4.246e+02   3.607e+02  -7.388e-10  -1.085e-09   1.300e+02
  4.968e+03   9.240e+01   5.014e+01  -6.183e-10  -8.684e-10   1.300e+02
 -3.153e+01  -1.813e+02  -1.827e+02  -3.901e-10  -4.583e-10   1.300e+02
 -4.564e+03   1.113e+01   5.014e+01  -1.622e-10  -4.817e-11   1.301e+02
 -6.766e+03   3.004e+02   3.607e+02  -4.215e-11   1.682e-10   1.301e+02
Element    16
  2.623e+03  -2.663e+02   4.972e+01  -6.122e-10  -2.128e-10   1.291e+02
  1.744e+03  -1.998e+02   7.054e+00  -7.429e-10  -3.779e-10   1.291e+02
  1.276e+02  -2.498e+01  -2.494e+01  -9.907e-10  -6.909e-10   1.291e+02
 -1.425e+03   2.139e+02   7.054e+00  -1.238e-09  -1.004e-09   1.291e+02
 -2.218e+03   3.658e+02   4.972e+01  -1.369e-09  -1.169e-09   1.291e+02



TIME =   6.000e-01

Nodal Displacements

 Node          U1          U2          U3
    1   0.000e+00   0.000e+00   0.000e+00
    2   4.772e-03   3.085e-03   3.731e-02
    3   7.451e-04   2.167e-03   1.501e-01
    4  -2.120e-02   2.097e-03   3.338e-01
    5  -6.587e-02   1.859e-03   5.788e-01
    6  -1.364e-01   1.667e-03   8.768e-01
    7  -2.342e-01   1.478e-03   1.220e+00
    8  -3.592e-01   1.300e-03   1.600e+00
    9  -5.104e-01   1.130e-03   2.013e+00
   10  -6.859e-01   9.699e-04   2.451e+00
   11  -8.835e-01   8.172e-04   2.910e+00
   12  -1.100e+00   6.712e-04   3.386e+00
   13  -1.334e+00   5.311e-04   3.875e+00
   14  -1.580e+00   3.951e-04   4.373e+00
   15  -1.837e+00   2.652e-04   4.879e+00
   16  -2.100e+00   1.249e-04   5.390e+00
   17  -2.367e+00   4.719e-05   5.902e+00
   18   0.000e+00   0.000e+00   0.000e+00
   19   4.772e-03  -3.085e-03   3.731e-02
   20   7.451e-04  -2.167e-03   1.501e-01
   21  -2.120e-02  -2.097e-03   3.338e-01
   22  -6.587e-02  -1.859e-03   5.788e-01
   23  -1.364e-01  -1.667e-03   8.768e-01
   24  -2.342e-01  -1.478e-03   1.220e+00
   25  -3.592e-01  -1.300e-03   1.600e+00
   26  -5.104e-01  -1.130e-03   2.013e+00
   27  -6.859e-01  -9.699e-04   2.451e+00
   28  -8.835e-01  -8.172e-04   2.910e+00
   29  -1.100e+00  -6.712e-04   3.386e+00
   30  -1.334e+00  -5.311e-04   3.875e+00
   31  -1.580e+00  -3.951e-04   4.373e+00
   32  -1.837e+00  -2.652e-04   4.879e+00
   33  -2.100e+00  -1.249e-04   5.390e+00
   34  -2.367e+00  -4.719e-05   5.902e+00
   35   0.000e+00   0.000e+00   0.000e+00
   36  -6.979e-03  -3.118e-03   3.642e-02
   37  -2.313e-02  -2.187e-03   1.471e-01
   38  -5.546e-02  -2.113e-03   3.277e-01
   39  -1.092e-01  -1.870e-03   5.688e-01
   40  -1.876e-01  -1.674e-03   8.626e-01
   41  -2.920e-01  -1.481e-03   1.201e+00
   42  -4.225e-01  -1.300e-03   1.578e+00
   43  -5.782e-01  -1.128e-03   1.986e+00
   44  -7.576e-01  -9.657e-04   2.420e+00
   45  -9.582e-01  -8.113e-04   2.876e+00
   46  -1.178e+00  -6.640e-04   3.349e+00
   47  -1.413e+00  -5.229e-04   3.836e+00
   48  -1.661e+00  -3.862e-04   4.333e+00
   49  -1.918e+00  -2.557e-04   4.838e+00
   50  -2.182e+00  -1.151e-04   5.347e+00
   51  -2.449e+00  -3.731e-05   5.859e+00
   52   0.000e+00   0.000e+00   0.000e+00
   53  -6.979e-03   3.118e-03   3.642e-02
   54  -2.313e-02   2.187e-03   1.471e-01
   55  -5.546e-02   2.113e-03   3.277e-01
   56  -1.092e-01   1.870e-03   5.688e-01
   57  -1.876e-01   1.674e-03   8.626e-01
   58  -2.920e-01   1.481e-03   1.201e+00
   59  -4.225e-01   1.300e-03   1.578e+00
   60  -5.782e-01   1.128e-03   1.986e+00
   61  -7.576e-01   9.657e-04   2.420e+00
   62  -9.582e-01   8.113e-04   2.876e+00
   63  -1.178e+00   6.640e-04   3.349e+00
   64  -1.413e+00   5.229e-04   3.836e+00
   65  -1.661e+00   3.862e-04   4.333e+00
   66  -1.918e+00   2.557e-04   4.838e+00
   67  -2.182e+00   1.151e-04   5.347e+00
   68  -2.449e+00   3.731e-05   5.859e+00

Element Stress

        S11         S22         S33         S12         S23         S13
Element     1
  1.594e+05   7.587e+04   5.434e+04   1.002e-10  -8.303e-14   2.395e+02
  7.620e+04   2.164e+04   7.494e+03   6.614e-11  -2.855e-12   2.379e+02
 -2.774e+04  -2.747e+04  -2.764e+04   1.711e-12  -8.110e-12   2.348e+02
 -6.116e+04  -6.292e+03   7.494e+03  -6.247e-11  -1.336e-11   2.317e+02
 -5.038e+04   3.320e+04   5.434e+04  -9.623e-11  -1.614e-11   2.301e+02
Element     2
  1.651e+05   6.438e+04   6.889e+04   1.699e-10   1.858e-11   2.397e+02
  7.247e+04   6.706e+03   9.578e+03   1.120e-10   1.354e-11   2.396e+02
 -3.498e+04  -3.461e+04  -3.490e+04   2.273e-12   3.977e-12   2.395e+02
 -5.318e+04   1.312e+04   9.578e+03  -1.071e-10  -5.583e-12   2.393e+02
 -2.683e+04   7.417e+04   6.889e+04  -1.646e-10  -1.063e-11   2.392e+02
Element     3
  1.392e+05   5.276e+04   5.177e+04   1.305e-10  -1.395e-11   2.292e+02
  6.437e+04   7.889e+03   7.173e+03   8.482e-11  -1.002e-11   2.296e+02
 -2.628e+04  -2.604e+04  -2.627e+04  -1.542e-12  -2.562e-12   2.303e+02
 -4.982e+04   6.971e+03   7.173e+03  -8.764e-11   4.891e-12   2.311e+02
 -3.519e+04   5.136e+04   5.177e+04  -1.330e-10   8.822e-12   2.314e+02
Element     4
  1.221e+05   4.296e+04   4.312e+04   4.284e-11  -4.899e-11   2.222e+02
  5.765e+04   5.938e+03   5.986e+03   2.188e-11  -3.298e-11   2.221e+02
 -2.184e+04  -2.168e+04  -2.186e+04  -1.786e-11  -2.636e-12   2.220e+02
 -4.546e+04   6.456e+03   5.986e+03  -5.759e-11   2.771e-11   2.218e+02
 -3.540e+04   4.376e+04   4.312e+04  -7.855e-11   4.372e-11   2.217e+02
Element     5
  1.053e+05   3.458e+04   3.449e+04   2.913e-10   1.126e-10   2.115e+02
  5.115e+04   4.883e+03   4.782e+03   2.237e-10   9.307e-11   2.117e+02
 -1.744e+04  -1.734e+04  -1.750e+04   9.589e-11   5.612e-11   2.120e+02
 -4.133e+04   5.022e+03   4.782e+03  -3.154e-11   1.918e-11   2.124e+02
 -3.592e+04   3.479e+04   3.449e+04  -9.862e-11  -3.159e-13   2.126e+02
Element     6
  9.047e+04   2.740e+04   2.736e+04   1.089e-10   6.191e-11   2.016e+02
  4.511e+04   3.853e+03   3.797e+03   5.866e-11   6.082e-12   2.016e+02
 -1.379e+04  -1.376e+04  -1.388e+04  -3.615e-11  -9.974e-11   2.017e+02
 -3.723e+04   4.010e+03   3.797e+03  -1.303e-10  -2.056e-10   2.017e+02
 -3.531e+04   2.763e+04   2.736e+04  -1.798e-10  -2.614e-10   2.017e+02
Element     7
  7.707e+04   2.136e+04   2.132e+04   5.183e-10   4.446e-10   1.910e+02
  3.947e+04   3.009e+03   2.957e+03   3.784e-10   3.591e-10   1.911e+02
 -1.070e+04  -1.072e+04  -1.081e+04   1.140e-10   1.972e-10   1.913e+02
 -3.324e+04   3.114e+03   2.957e+03  -1.491e-10   3.520e-11   1.915e+02
 -3.400e+04   2.152e+04   2.132e+04  -2.875e-10  -5.024e-11   1.916e+02
Element     8
  6.506e+04   1.632e+04   1.629e+04   7.179e-10   7.510e-10   1.812e+02
  3.421e+04   2.301e+03   2.261e+03   6.158e-10   5.822e-10   1.813e+02
 -8.133e+03  -8.192e+03  -8.264e+03   4.233e-10   2.621e-10   1.813e+02
 -2.936e+04   2.381e+03   2.261e+03   2.319e-10  -5.805e-11   1.814e+02
 -3.205e+04   1.645e+04   1.629e+04   1.315e-10  -2.269e-10   1.814e+02
Element     9
  5.429e+04   1.217e+04   1.215e+04   1.023e-09   1.519e-09   1.719e+02
  2.931e+04   1.716e+03   1.685e+03   7.195e-10   1.238e-09   1.719e+02
 -6.015e+03  -6.109e+03  -6.163e+03   1.457e-10   7.070e-10   1.720e+02
 -2.560e+04   1.774e+03   1.685e+03  -4.254e-10   1.755e-10   1.721e+02
 -2.958e+04   1.226e+04   1.215e+04  -7.256e-10  -1.049e-10   1.722e+02
Element    10
  4.463e+04   8.793e+03   8.776e+03  -1.076e-09  -1.067e-09   1.636e+02
  2.473e+04   1.240e+03   1.218e+03  -8.993e-10  -8.972e-10   1.636e+02
 -4.290e+03  -4.413e+03  -4.451e+03  -5.656e-10  -5.752e-10   1.637e+02
 -2.194e+04   1.282e+03   1.218e+03  -2.336e-10  -2.531e-10   1.637e+02
 -2.667e+04   8.857e+03   8.776e+03  -5.913e-11  -8.322e-11   1.637e+02
Element    11
  3.592e+04   6.082e+03   6.071e+03  -2.643e-10   2.017e-10   1.562e+02
  2.044e+04   8.570e+02   8.422e+02  -3.721e-10  -3.917e-11   1.563e+02
 -2.907e+03  -3.052e+03  -3.079e+03  -5.758e-10  -4.958e-10   1.563e+02
 -1.838e+04   8.869e+02   8.422e+02  -7.784e-10  -9.524e-10   1.564e+02
 -2.338e+04   6.127e+03   6.071e+03  -8.848e-10  -1.193e-09   1.564e+02
Element    12
  2.805e+04   3.951e+03   3.946e+03   7.235e-10  -2.542e-10   1.500e+02
  1.639e+04   5.559e+02   5.477e+02   5.475e-10  -2.885e-10   1.501e+02
 -1.821e+03  -1.984e+03  -2.001e+03   2.142e-10  -3.535e-10   1.501e+02
 -1.491e+04   5.778e+02   5.477e+02  -1.183e-10  -4.184e-10   1.501e+02
 -1.976e+04   3.985e+03   3.946e+03  -2.934e-10  -4.527e-10   1.502e+02
Element    13
  2.090e+04   2.335e+03   2.330e+03   9.616e-10   1.794e-10   1.450e+02
  1.254e+04   3.293e+02   3.234e+02   6.404e-10   1.275e-10   1.450e+02
 -9.944e+02  -1.172e+03  -1.182e+03   3.231e-11   2.910e-11   1.451e+02
 -1.151e+04   3.399e+02   3.234e+02  -5.745e-10  -6.926e-11   1.451e+02
 -1.585e+04   2.351e+03   2.330e+03  -8.942e-10  -1.212e-10   1.451e+02
Element    14
  1.437e+04   1.155e+03   1.170e+03  -1.194e-09  -1.340e-11   1.412e+02
  8.871e+03   1.539e+02   1.624e+02  -1.288e-09  -2.175e-10   1.413e+02
 -4.011e+02  -5.881e+02  -5.930e+02  -1.465e-09  -6.043e-10   1.413e+02
 -8.157e+03   1.820e+02   1.624e+02  -1.642e-09  -9.912e-10   1.413e+02
 -1.164e+04   1.197e+03   1.170e+03  -1.735e-09  -1.195e-09   1.413e+02
Element    15
  8.362e+03   4.767e+02   4.094e+02   8.520e-10   6.435e-10   1.387e+02
  5.330e+03   1.014e+02   5.692e+01   1.021e-09   7.888e-10   1.387e+02
 -1.245e+01  -2.058e+02  -2.075e+02   1.341e-09   1.064e-09   1.387e+02
 -4.825e+03   1.609e+01   5.692e+01   1.660e-09   1.340e-09   1.388e+02
 -7.149e+03   3.464e+02   4.094e+02   1.829e-09   1.485e-09   1.388e+02
Element    16
  2.830e+03  -2.802e+02   5.635e+01   2.738e-09   8.114e-10   1.374e+02
  1.892e+03  -2.124e+02   7.996e+00   2.444e-09   7.701e-10   1.374e+02
  1.682e+02  -2.832e+01  -2.827e+01   1.886e-09   6.918e-10   1.375e+02
 -1.483e+03   2.284e+02   7.996e+00   1.328e-09   6.135e-10   1.375e+02
 -2.324e+03   3.930e+02   5.635e+01   1.034e-09   5.722e-10   1.375e+02



TIME =   7.000e-01

Nodal Displacements

 Node          U1          U2          U3
    1   0.000e+00   0.000e+00   0.000e+00
    2   5.140e-03   3.408e-03   4.126e-02
    3  -4.892e-04   2.374e-03   1.657e-01
    4  -2.769e-02   2.286e-03   3.674e-01
    5  -8.200e-02   2.015e-03   6.351e-01
    6  -1.669e-01   1.796e-03   9.589e-01
    7  -2.835e-01   1.583e-03   1.330e+00
    8  -4.315e-01   1.385e-03   1.739e+00
    9  -6.094e-01   1.198e-03   2.181e+00
   10  -8.148e-01   1.024e-03   2.648e+00
   11  -1.045e+00   8.590e-04   3.135e+00
   12  -1.297e+00   7.032e-04   3.639e+00
   13  -1.566e+00   5.550e-04   4.155e+00
   14  -1.851e+00   4.121e-04   4.680e+00
   15  -2.146e+00   2.765e-04   5.212e+00
   16  -2.449e+00   1.305e-04   5.749e+00
   17  -2.755e+00   4.987e-05   6.287e+00
   18   0.000e+00   0.000e+00   0.000e+00
   19   5.140e-03  -3.408e-03   4.126e-02
   20  -4.892e-04  -2.374e-03   1.657e-01
   21  -2.769e-02  -2.286e-03   3.674e-01
   22  -8.200e-02  -2.015e-03   6.351e-01
   23  -1.669e-01  -1.796e-03   9.589e-01
   24  -2.835e-01  -1.583e-03   1.330e+00
   25  -4.315e-01  -1.385e-03   1.739e+00
   26  -6.094e-01  -1.198e-03   2.181e+00
   27  -8.148e-01  -1.024e-03   2.648e+00
   28  -1.045e+00  -8.590e-04   3.135e+00
   29  -1.297e+00  -7.032e-04   3.639e+00
   30  -1.566e+00  -5.550e-04   4.155e+00
   31  -1.851e+00  -4.121e-04   4.680e+00
   32  -2.146e+00  -2.765e-04   5.212e+00
   33  -2.449e+00  -1.305e-04   5.749e+00
   34  -2.755e+00  -4.987e-05   6.287e+00
   35   0.000e+00   0.000e+00   0.000e+00
   36  -7.832e-03  -3.447e-03   4.018e-02
   37  -2.674e-02  -2.397e-03   1.620e-01
   38  -6.519e-02  -2.305e-03   3.600e-01
   39  -1.292e-01  -2.026e-03   6.231e-01
   40  -2.223e-01  -1.804e-03   9.421e-01
   41  -3.457e-01  -1.586e-03   1.308e+00
   42  -4.994e-01  -1.384e-03   1.713e+00
   43  -6.818e-01  -1.195e-03   2.149e+00
   44  -8.910e-01  -1.018e-03   2.612e+00
   45  -1.124e+00  -8.513e-04   3.096e+00
   46  -1.378e+00  -6.940e-04   3.597e+00
   47  -1.650e+00  -5.447e-04   4.110e+00
   48  -1.935e+00  -4.010e-04   4.634e+00
   49  -2.232e+00  -2.648e-04   5.164e+00
   50  -2.535e+00  -1.186e-04   5.700e+00
   51  -2.842e+00  -3.778e-05   6.237e+00
   52   0.000e+00   0.000e+00   0.000e+00
   53  -7.832e-03   3.447e-03   4.018e-02
   54  -2.674e-02   2.397e-03   1.620e-01
   55  -6.519e-02   2.305e-03   3.600e-01
   56  -1.292e-01   2.026e-03   6.231e-01
   57  -2.223e-01   1.804e-03   9.421e-01
   58  -3.457e-01   1.586e-03   1.308e+00
   59  -4.994e-01   1.384e-03   1.713e+00
   60  -6.818e-01   1.195e-03   2.149e+00
   61  -8.910e-01   1.018e-03   2.612e+00
   62  -1.124e+00   8.513e-04   3.096e+00
   63  -1.378e+00   6.940e-04   3.597e+00
   64  -1.650e+00   5.447e-04   4.110e+00
   65  -1.935e+00   4.010e-04   4.634e+00
   66  -2.232e+00   2.648e-04   5.164e+00
   67  -2.535e+00   1.186e-04   5.700e+00
   68  -2.842e+00   3.778e-05   6.237e+00

Element Stress

        S11         S22         S33         S12         S23         S13
Element     1
  1.824e+05   9.007e+04   6.630e+04  -7.415e-09   1.179e-10   2.787e+02
  8.502e+04   2.477e+04   9.143e+03  -4.831e-09   1.298e-10   2.767e+02
 -3.384e+04  -3.352e+04  -3.372e+04   5.250e-11   1.525e-10   2.730e+02
 -6.667e+04  -6.044e+03   9.143e+03   4.914e-09   1.751e-10   2.692e+02
 -4.932e+04   4.300e+04   6.630e+04   7.470e-09   1.870e-10   2.673e+02
Element     2
  1.891e+05   7.828e+04   8.333e+04  -1.339e-08  -1.764e-11   2.794e+02
  8.069e+04   8.378e+03   1.159e+04  -8.730e-09   3.449e-12   2.793e+02
 -4.231e+04  -4.187e+04  -4.222e+04   7.965e-11   4.343e-11   2.791e+02
 -5.736e+04   1.561e+04   1.159e+04   8.861e-09   8.341e-11   2.789e+02
 -2.180e+04   8.932e+04   8.333e+04   1.348e-08   1.045e-10   2.788e+02
Element     3
  1.574e+05   6.292e+04   6.183e+04  -1.025e-08  -2.054e-10   2.649e+02
  7.107e+04   9.353e+03   8.567e+03  -6.695e-09  -1.932e-10   2.654e+02
 -3.138e+04  -3.111e+04  -3.138e+04   3.200e-11  -1.699e-10   2.663e+02
 -5.368e+04   8.395e+03   8.567e+03   6.739e-09  -1.466e-10   2.672e+02
 -3.315e+04   6.145e+04   6.183e+04   1.027e-08  -1.344e-10   2.677e+02
Element     4
  1.367e+05   5.073e+04   5.092e+04  -7.472e-09  -3.418e-10   2.549e+02
  6.321e+04   7.007e+03   7.070e+03  -4.911e-09  -2.990e-10   2.548e+02
 -2.579e+04  -2.560e+04  -2.582e+04  -6.760e-11  -2.178e-10   2.547e+02
 -4.880e+04   7.631e+03   7.070e+03   4.763e-09  -1.366e-10   2.545e+02
 -3.434e+04   5.169e+04   5.092e+04   7.305e-09  -9.381e-11   2.544e+02
Element     5
  1.168e+05   4.033e+04   4.024e+04  -5.363e-09  -2.969e-11   2.403e+02
  5.568e+04   5.686e+03   5.580e+03  -3.503e-09  -3.292e-11   2.405e+02
 -2.033e+04  -2.024e+04  -2.042e+04   1.702e-11  -3.904e-11   2.410e+02
 -4.419e+04   5.871e+03   5.580e+03   3.529e-09  -4.516e-11   2.414e+02
 -3.576e+04   4.061e+04   4.024e+04   5.378e-09  -4.839e-11   2.417e+02
Element     6
  9.935e+04   3.159e+04   3.156e+04  -3.499e-09   2.750e-10   2.268e+02
  4.876e+04   4.437e+03   4.380e+03  -2.209e-09   2.151e-10   2.268e+02
 -1.589e+04  -1.587e+04  -1.600e+04   2.338e-10   1.016e-10   2.268e+02
 -3.965e+04   4.632e+03   4.380e+03   2.673e-09  -1.201e-11   2.269e+02
 -3.570e+04   3.188e+04   3.156e+04   3.958e-09  -7.193e-11   2.269e+02
Element     7
  8.387e+04   2.435e+04   2.431e+04  -2.988e-09  -4.437e-10   2.125e+02
  4.239e+04   3.426e+03   3.372e+03  -2.009e-09  -3.916e-10   2.127e+02
 -1.219e+04  -1.223e+04  -1.233e+04  -1.555e-10  -2.927e-10   2.129e+02
 -3.525e+04   3.558e+03   3.372e+03   1.694e-09  -1.939e-10   2.131e+02
 -3.472e+04   2.455e+04   2.431e+04   2.668e-09  -1.418e-10   2.132e+02
Element     8
  7.021e+04   1.841e+04   1.839e+04  -2.223e-09  -2.541e-10   1.995e+02
  3.652e+04   2.592e+03   2.551e+03  -1.486e-09  -2.558e-10   1.995e+02
 -9.159e+03  -9.244e+03  -9.325e+03  -9.049e-11  -2.590e-10   1.996e+02
 -3.101e+04   2.691e+03   2.551e+03   1.302e-09  -2.622e-10   1.997e+02
 -3.293e+04   1.856e+04   1.839e+04   2.036e-09  -2.639e-10   1.997e+02
Element     9
  5.815e+04   1.360e+04   1.358e+04  -1.315e-09  -2.589e-10   1.872e+02
  3.112e+04   1.914e+03   1.883e+03  -9.050e-10  -3.066e-10   1.872e+02
 -6.700e+03  -6.827e+03  -6.886e+03  -1.277e-10  -3.969e-10   1.873e+02
 -2.692e+04   1.986e+03   1.883e+03   6.488e-10  -4.872e-10   1.875e+02
 -3.050e+04   1.371e+04   1.358e+04   1.058e-09  -5.348e-10   1.875e+02
Element    10
  4.748e+04   9.735e+03   9.721e+03  -1.541e-09  -4.423e-10   1.763e+02
  2.613e+04   1.371e+03   1.349e+03  -1.058e-09  -3.998e-10   1.763e+02
 -4.729e+03  -4.887e+03  -4.930e+03  -1.431e-10  -3.193e-10   1.764e+02
 -2.299e+04   1.422e+03   1.349e+03   7.708e-10  -2.387e-10   1.764e+02
 -2.754e+04   9.815e+03   9.721e+03   1.252e-09  -1.962e-10   1.764e+02
Element    11
  3.800e+04   6.681e+03   6.672e+03  -9.478e-10  -9.256e-10   1.667e+02
  2.150e+04   9.397e+02   9.256e+02  -4.906e-10  -7.703e-10   1.668e+02
 -3.170e+03  -3.355e+03  -3.384e+03   3.739e-10  -4.760e-10   1.668e+02
 -1.919e+04   9.767e+02   9.256e+02   1.235e-09  -1.816e-10   1.669e+02
 -2.416e+04   6.737e+03   6.672e+03   1.689e-09  -2.636e-11   1.669e+02
Element    12
  2.953e+04   4.312e+03   4.308e+03  -2.061e-09  -7.848e-10   1.587e+02
  1.718e+04   6.053e+02   5.979e+02  -1.276e-09  -4.025e-10   1.588e+02
 -1.962e+03  -2.166e+03  -2.185e+03   2.092e-10   3.223e-10   1.588e+02
 -1.552e+04   6.324e+02   5.979e+02   1.690e-09   1.047e-09   1.588e+02
 -2.042e+04   4.353e+03   4.308e+03   2.470e-09   1.429e-09   1.589e+02
Element    13
  2.192e+04   2.533e+03   2.530e+03   1.927e-09   6.508e-10   1.523e+02
  1.312e+04   3.563e+02   3.511e+02   1.703e-09   6.660e-10   1.523e+02
 -1.052e+03  -1.272e+03  -1.283e+03   1.279e-09   6.948e-10   1.523e+02
 -1.195e+04   3.704e+02   3.511e+02   8.552e-10   7.237e-10   1.524e+02
 -1.637e+04   2.555e+03   2.530e+03   6.321e-10   7.389e-10   1.524e+02
Element    14
  1.503e+04   1.248e+03   1.265e+03   2.004e-09   2.457e-09   1.475e+02
  9.267e+03   1.660e+02   1.757e+02   2.012e-09   2.089e-09   1.475e+02
 -4.056e+02  -6.360e+02  -6.413e+02   2.029e-09   1.393e-09   1.475e+02
 -8.439e+03   1.972e+02   1.757e+02   2.047e-09   6.967e-10   1.475e+02
 -1.202e+04   1.296e+03   1.265e+03   2.057e-09   3.294e-10   1.475e+02
Element    15
  8.736e+03   5.105e+02   4.415e+02  -7.600e-10  -9.129e-10   1.442e+02
  5.574e+03   1.070e+02   6.139e+01  -5.838e-10  -6.106e-10   1.443e+02
  1.534e+01  -2.220e+02  -2.237e+02  -2.509e-10  -3.752e-11   1.443e+02
 -4.971e+03   1.971e+01   6.139e+01   8.082e-11   5.356e-10   1.443e+02
 -7.371e+03   3.771e+02   4.415e+02   2.553e-10   8.379e-10   1.443e+02
Element    16
  2.976e+03  -2.888e+02   6.069e+01  -2.168e-09  -1.525e-11   1.426e+02
  2.000e+03  -2.202e+02   8.611e+00  -2.045e-09   1.811e-12   1.426e+02
  2.102e+02  -3.050e+01  -3.045e+01  -1.811e-09   3.414e-11   1.426e+02
 -1.501e+03   2.374e+02   8.611e+00  -1.577e-09   6.648e-11   1.426e+02
 -2.373e+03   4.102e+02   6.069e+01  -1.454e-09   8.353e-11   1.426e+02



TIME =   8.000e-01

Nodal Displacements

 Node          U1          U2          U3
    1   0.000e+00   0.000e+00   0.000e+00
    2   5.449e-03   3.700e-03   4.484e-02
    3  -1.813e-03   2.556e-03   1.797e-01
    4  -3.418e-02   2.450e-03   3.974e-01
    5  -9.779e-02   2.145e-03   6.849e-01
    6  -1.962e-01   1.902e-03   1.031e+00
    7  -3.305e-01   1.667e-03   1.425e+00
    8  -4.997e-01   1.450e-03   1.858e+00
    9  -7.020e-01   1.249e-03   2.323e+00
   10  -9.345e-01   1.062e-03   2.813e+00
   11  -1.194e+00   8.876e-04   3.323e+00
   12  -1.476e+00   7.242e-04   3.848e+00
   13  -1.778e+00   5.701e-04   4.385e+00
   14  -2.095e+00   4.226e-04   4.931e+00
   15  -2.424e+00   2.833e-04   5.482e+00
   16  -2.761e+00   1.342e-04   6.037e+00
   17  -3.102e+00   5.184e-05   6.594e+00
   18   0.000e+00   0.000e+00   0.000e+00
   19   5.449e-03  -3.700e-03   4.484e-02
   20  -1.813e-03  -2.556e-03   1.797e-01
   21  -3.418e-02  -2.450e-03   3.974e-01
   22  -9.779e-02  -2.145e-03   6.849e-01
   23  -1.962e-01  -1.902e-03   1.031e+00
   24  -3.305e-01  -1.667e-03   1.425e+00
   25  -4.997e-01  -1.450e-03   1.858e+00
   26  -7.020e-01  -1.249e-03   2.323e+00
   27  -9.345e-01  -1.062e-03   2.813e+00
   28  -1.194e+00  -8.876e-04   3.323e+00
   29  -1.476e+00  -7.242e-04   3.848e+00
   30  -1.778e+00  -5.701e-04   4.385e+00
   31  -2.095e+00  -4.226e-04   4.931e+00
   32  -2.424e+00  -2.833e-04   5.482e+00
   33  -2.761e+00  -1.342e-04   6.037e+00
   34  -3.102e+00  -5.184e-05   6.594e+00
   35   0.000e+00   0.000e+00   0.000e+00
   36  -8.622e-03  -3.746e-03   4.356e-02
   37  -3.019e-02  -2.583e-03   1.754e-01
   38  -7.453e-02  -2.472e-03   3.888e-01
   39  -1.483e-01  -2.158e-03   6.710e-01
   40  -2.553e-01  -1.910e-03   1.011e+00
   41  -3.965e-01  -1.669e-03   1.400e+00
   42  -5.714e-01  -1.448e-03   1.828e+00
   43  -7.782e-01  -1.244e-03   2.288e+00
   44  -1.014e+00  -1.054e-03   2.774e+00
   45  -1.276e+00  -8.780e-04   3.280e+00
   46  -1.561e+00  -7.130e-04   3.801e+00
   47  -1.865e+00  -5.577e-04   4.335e+00
   48  -2.183e+00  -4.094e-04   4.879e+00
   49  -2.513e+00  -2.695e-04   5.429e+00
   50  -2.850e+00  -1.200e-04   5.983e+00
   51  -3.191e+00  -3.755e-05   6.539e+00
   52   0.000e+00   0.000e+00   0.000e+00
   53  -8.622e-03   3.746e-03   4.356e-02
   54  -3.019e-02   2.583e-03   1.754e-01
   55  -7.453e-02   2.472e-03   3.888e-01
   56  -1.483e-01   2.158e-03   6.710e-01
   57  -2.553e-01   1.910e-03   1.011e+00
   58  -3.965e-01   1.669e-03   1.400e+00
   59  -5.714e-01   1.448e-03   1.828e+00
   60  -7.782e-01   1.244e-03   2.288e+00
   61  -1.014e+00   1.054e-03   2.774e+00
   62  -1.276e+00   8.780e-04   3.280e+00
   63  -1.561e+00   7.130e-04   3.801e+00
   64  -1.865e+00   5.577e-04   4.335e+00
   65  -2.183e+00   4.094e-04   4.879e+00
   66  -2.513e+00   2.695e-04   5.429e+00
   67  -2.850e+00   1.200e-04   5.983e+00
   68  -3.191e+00   3.755e-05   6.539e+00

Element Stress

        S11         S22         S33         S12         S23         S13
Element     1
  2.042e+05   1.039e+05   7.813e+04  -6.785e-09   9.518e-11   3.178e+02
  9.313e+04   2.774e+04   1.077e+04  -4.418e-09   1.120e-10   3.155e+02
 -3.988e+04  -3.950e+04  -3.974e+04   5.334e-11   1.437e-10   3.110e+02
 -7.150e+04  -5.671e+03   1.077e+04   4.503e-09   1.755e-10   3.066e+02
 -4.733e+04   5.290e+04   7.813e+04   6.842e-09   1.923e-10   3.043e+02
Element     2
  2.116e+05   9.181e+04   9.737e+04  -1.224e-08  -9.288e-12   3.189e+02
  8.818e+04   1.001e+04   1.354e+04  -7.977e-09   8.181e-12   3.188e+02
 -4.943e+04  -4.892e+04  -4.934e+04   7.694e-11   4.130e-11   3.186e+02
 -6.090e+04   1.801e+04   1.354e+04   8.103e-09   7.441e-11   3.184e+02
 -1.612e+04   1.040e+05   9.737e+04   1.233e-08   9.188e-11   3.183e+02
Element     3
  1.740e+05   7.250e+04   7.134e+04  -9.768e-09  -2.069e-10   3.001e+02
  7.702e+04   1.073e+04   9.884e+03  -6.385e-09  -1.898e-10   3.006e+02
 -3.620e+04  -3.589e+04  -3.621e+04   1.338e-11  -1.576e-10   3.017e+02
 -5.694e+04   9.745e+03   9.884e+03   6.391e-09  -1.253e-10   3.028e+02
 -3.062e+04   7.099e+04   7.134e+04   9.747e-09  -1.083e-10   3.034e+02
Element     4
  1.498e+05   5.787e+04   5.810e+04  -7.789e-09   1.900e-10   2.866e+02
  6.802e+04   7.986e+03   8.066e+03  -5.051e-09   1.531e-10   2.865e+02
 -2.941e+04  -2.920e+04  -2.946e+04   1.278e-10   8.325e-11   2.863e+02
 -5.156e+04   8.714e+03   8.066e+03   5.293e-09   1.339e-11   2.861e+02
 -3.291e+04   5.898e+04   5.810e+04   8.011e-09  -2.346e-11   2.860e+02
Element     5
  1.267e+05   4.544e+04   4.536e+04  -6.601e-09  -4.459e-10   2.676e+02
  5.949e+04   6.398e+03   6.290e+03  -4.355e-09  -3.683e-10   2.679e+02
 -2.291e+04  -2.281e+04  -2.301e+04  -1.069e-10  -2.213e-10   2.685e+02
 -4.651e+04   6.629e+03   6.290e+03   4.129e-09  -7.433e-11   2.690e+02
 -3.528e+04   4.579e+04   4.536e+04   6.359e-09   3.215e-12   2.693e+02
Element     6
  1.067e+05   3.518e+04   3.516e+04  -4.873e-09   6.053e-11   2.502e+02
  5.175e+04   4.936e+03   4.880e+03  -3.200e-09   1.494e-12   2.502e+02
 -1.769e+04  -1.768e+04  -1.783e+04  -3.520e-11  -1.104e-10   2.502e+02
 -4.156e+04   5.169e+03   4.880e+03   3.123e-09  -2.223e-10   2.503e+02
 -3.579e+04   3.554e+04   3.516e+04   4.786e-09  -2.814e-10   2.503e+02
Element     7
  8.933e+04   2.682e+04   2.679e+04  -3.418e-09  -3.427e-11   2.320e+02
  4.469e+04   3.769e+03   3.716e+03  -2.195e-09   2.127e-11   2.322e+02
 -1.341e+04  -1.347e+04  -1.359e+04   1.209e-10   1.265e-10   2.324e+02
 -3.679e+04   3.925e+03   3.716e+03   2.433e-09   2.318e-10   2.327e+02
 -3.514e+04   2.706e+04   2.679e+04   3.651e-09   2.874e-10   2.328e+02
Element     8
  7.419e+04   2.007e+04   2.005e+04  -2.846e-09  -5.158e-10   2.155e+02
  3.827e+04   2.822e+03   2.782e+03  -1.813e-09  -3.494e-10   2.156e+02
 -9.963e+03  -1.008e+04  -1.017e+04   1.404e-10  -3.384e-11   2.156e+02
 -3.222e+04   2.938e+03   2.782e+03   2.090e-09   2.817e-10   2.157e+02
 -3.350e+04   2.025e+04   2.005e+04   3.116e-09   4.481e-10   2.157e+02
Element     9
  6.101e+04   1.468e+04   1.466e+04  -3.029e-09  -7.228e-10   2.001e+02
  3.244e+04   2.063e+03   2.033e+03  -2.034e-09  -5.080e-10   2.002e+02
 -7.209e+03  -7.371e+03  -7.435e+03  -1.529e-10  -1.010e-10   2.003e+02
 -2.786e+04   2.147e+03   2.033e+03   1.723e-09   3.061e-10   2.004e+02
 -3.110e+04   1.480e+04   1.466e+04   2.711e-09   5.208e-10   2.005e+02
Element    10
  4.950e+04   1.041e+04   1.040e+04  -9.305e-10   4.761e-11   1.866e+02
  2.711e+04   1.464e+03   1.444e+03  -2.721e-10   2.504e-10   1.866e+02
 -5.033e+03  -5.231e+03  -5.276e+03   9.737e-10   6.348e-10   1.867e+02
 -2.369e+04   1.525e+03   1.444e+03   2.216e-09   1.019e-09   1.867e+02
 -2.811e+04   1.051e+04   1.040e+04   2.871e-09   1.222e-09   1.868e+02
Element    11
  3.940e+04   7.091e+03   7.085e+03  -7.358e-10  -2.141e-10   1.748e+02
  2.222e+04   9.958e+02   9.830e+02  -4.723e-10  -9.810e-11   1.749e+02
 -3.337e+03  -3.563e+03  -3.593e+03   2.666e-11   1.217e-10   1.749e+02
 -1.971e+04   1.039e+03   9.830e+02   5.251e-10   3.416e-10   1.750e+02
 -2.465e+04   7.158e+03   7.085e+03   7.878e-10   4.575e-10   1.750e+02
Element    12
  3.049e+04   4.546e+03   4.545e+03   6.970e-10  -1.081e-11   1.650e+02
  1.770e+04   6.369e+02   6.308e+02   7.046e-10  -6.105e-11   1.651e+02
 -2.039e+03  -2.285e+03  -2.305e+03   7.198e-10  -1.563e-10   1.651e+02
 -1.589e+04   6.689e+02   6.308e+02   7.360e-10  -2.515e-10   1.651e+02
 -2.082e+04   4.595e+03   4.545e+03   7.449e-10  -3.017e-10   1.652e+02
Element    13
  2.255e+04   2.656e+03   2.655e+03   1.677e-09  -4.862e-10   1.572e+02
  1.349e+04   3.725e+02   3.685e+02   1.492e-09  -3.963e-10   1.572e+02
 -1.072e+03  -1.335e+03  -1.346e+03   1.143e-09  -2.261e-10   1.573e+02
 -1.219e+04   3.900e+02   3.685e+02   7.957e-10  -5.579e-11   1.573e+02
 -1.667e+04   2.683e+03   2.655e+03   6.127e-10   3.404e-11   1.573e+02
Element    14
  1.543e+04   1.303e+03   1.322e+03   1.820e-09  -4.773e-10   1.513e+02
  9.516e+03   1.729e+02   1.836e+02   1.579e-09  -4.142e-10   1.514e+02
 -3.906e+02  -6.647e+02  -6.702e+02   1.121e-09  -2.946e-10   1.514e+02
 -8.584e+03   2.067e+02   1.836e+02   6.636e-10  -1.750e-10   1.514e+02
 -1.222e+04   1.355e+03   1.322e+03   4.229e-10  -1.119e-10   1.514e+02
Element    15
  8.966e+03   5.296e+02   4.602e+02  -8.574e-11   1.126e-09   1.474e+02
  5.730e+03   1.100e+02   6.398e+01  -3.757e-10   7.053e-10   1.475e+02
  4.989e+01  -2.313e+02  -2.332e+02  -9.250e-10  -9.150e-11   1.475e+02
 -5.034e+03   2.213e+01   6.398e+01  -1.474e-09  -8.883e-10   1.475e+02
 -7.475e+03   3.955e+02   4.602e+02  -1.763e-09  -1.309e-09   1.475e+02
Element    16
  3.076e+03  -2.935e+02   6.315e+01   4.149e-09   1.382e-09   1.455e+02
  2.080e+03  -2.246e+02   8.961e+00   3.220e-09   1.048e-09   1.455e+02
  2.530e+02  -3.174e+01  -3.168e+01   1.458e-09   4.158e-10   1.455e+02
 -1.492e+03   2.425e+02   8.961e+00  -3.036e-10  -2.165e-10   1.455e+02
 -2.380e+03   4.199e+02   6.315e+01  -1.232e-09  -5.501e-10   1.455e+02



TIME =   9.000e-01

Nodal Displacements

 Node          U1          U2          U3
    1   0.000e+00   0.000e+00   0.000e+00
    2   5.714e-03   3.967e-03   4.812e-02
    3  -3.195e-03   2.718e-03   1.924e-01
    4  -4.062e-02   2.594e-03   4.245e-01
    5  -1.132e-01   2.257e-03   7.295e-01
    6  -2.245e-01   1.990e-03   1.095e+00
    7  -3.752e-01   1.734e-03   1.509e+00
    8  -5.641e-01   1.500e-03   1.962e+00
    9  -7.886e-01   1.286e-03   2.447e+00
   10  -1.045e+00   1.088e-03   2.955e+00
   11  -1.331e+00   9.063e-04   3.483e+00
   12  -1.640e+00   7.370e-04   4.025e+00
   13  -1.970e+00   5.787e-04   4.578e+00
   14  -2.316e+00   4.283e-04   5.138e+00
   15  -2.674e+00   2.870e-04   5.704e+00
   16  -3.041e+00   1.363e-04   6.274e+00
   17  -3.411e+00   5.328e-05   6.845e+00
   18   0.000e+00   0.000e+00   0.000e+00
   19   5.714e-03  -3.967e-03   4.812e-02
   20  -3.195e-03  -2.718e-03   1.924e-01
   21  -4.062e-02  -2.594e-03   4.245e-01
   22  -1.132e-01  -2.257e-03   7.295e-01
   23  -2.245e-01  -1.990e-03   1.095e+00
   24  -3.752e-01  -1.734e-03   1.509e+00
   25  -5.641e-01  -1.500e-03   1.962e+00
   26  -7.886e-01  -1.286e-03   2.447e+00
   27  -1.045e+00  -1.088e-03   2.955e+00
   28  -1.331e+00  -9.063e-04   3.483e+00
   29  -1.640e+00  -7.370e-04   4.025e+00
   30  -1.970e+00  -5.787e-04   4.578e+00
   31  -2.316e+00  -4.283e-04   5.138e+00
   32  -2.674e+00  -2.870e-04   5.704e+00
   33  -3.041e+00  -1.363e-04   6.274e+00
   34  -3.411e+00  -5.328e-05   6.845e+00
   35   0.000e+00   0.000e+00   0.000e+00
   36  -9.361e-03  -4.020e-03   4.665e-02
   37  -3.349e-02  -2.748e-03   1.876e-01
   38  -8.349e-02  -2.617e-03   4.147e-01
   39  -1.666e-01  -2.270e-03   7.138e-01
   40  -2.866e-01  -1.997e-03   1.073e+00
   41  -4.443e-01  -1.735e-03   1.481e+00
   42  -6.388e-01  -1.497e-03   1.928e+00
   43  -8.678e-01  -1.279e-03   2.408e+00
   44  -1.128e+00  -1.079e-03   2.911e+00
   45  -1.416e+00  -8.946e-04   3.435e+00
   46  -1.728e+00  -7.238e-04   3.973e+00
   47  -2.059e+00  -5.642e-04   4.523e+00
   48  -2.406e+00  -4.129e-04   5.082e+00
   49  -2.765e+00  -2.710e-04   5.646e+00
   50  -3.132e+00  -1.200e-04   6.215e+00
   51  -3.502e+00  -3.680e-05   6.785e+00
   52   0.000e+00   0.000e+00   0.000e+00
   53  -9.361e-03   4.020e-03   4.665e-02
   54  -3.349e-02   2.748e-03   1.876e-01
   55  -8.349e-02   2.617e-03   4.147e-01
   56  -1.666e-01   2.270e-03   7.138e-01
   57  -2.866e-01   1.997e-03   1.073e+00
   58  -4.443e-01   1.735e-03   1.481e+00
   59  -6.388e-01   1.497e-03   1.928e+00
   60  -8.678e-01   1.279e-03   2.408e+00
   61  -1.128e+00   1.079e-03   2.911e+00
   62  -1.416e+00   8.946e-04   3.435e+00
   63  -1.728e+00   7.238e-04   3.973e+00
   64  -2.059e+00   5.642e-04   4.523e+00
   65  -2.406e+00   4.129e-04   5.082e+00
   66  -2.765e+00   2.710e-04   5.646e+00
   67  -3.132e+00   1.200e-04   6.215e+00
   68  -3.502e+00   3.680e-05   6.785e+00

Element Stress

        S11         S22         S33         S12         S23         S13
Element     1
  2.249e+05   1.174e+05   8.980e+04  -7.161e-07   6.203e-09   3.568e+02
  1.007e+05   3.056e+04   1.238e+04  -4.662e-07   8.827e-09   3.541e+02
 -4.584e+04  -4.540e+04  -4.568e+04   5.666e-09   1.380e-08   3.490e+02
 -7.580e+04  -5.205e+03   1.238e+04   4.752e-07   1.878e-08   3.438e+02
 -4.465e+04   6.280e+04   8.980e+04   7.219e-07   2.140e-08   3.411e+02
Element     2
  2.328e+05   1.049e+05   1.110e+05  -1.304e-06  -1.343e-09   3.583e+02
  9.504e+04   1.160e+04   1.543e+04  -8.502e-07   1.366e-09   3.582e+02
 -5.633e+04  -5.575e+04  -5.623e+04   8.259e-09   6.502e-09   3.580e+02
 -6.394e+04   2.034e+04   1.543e+04   8.636e-07   1.164e-08   3.579e+02
 -1.003e+04   1.183e+05   1.110e+05   1.313e-06   1.435e-08   3.578e+02
Element     3
  1.892e+05   8.151e+04   8.029e+04  -1.102e-06  -1.433e-08   3.346e+02
  8.235e+04   1.202e+04   1.112e+04  -7.192e-07  -1.217e-08   3.353e+02
 -4.074e+04  -4.039e+04  -4.075e+04   5.242e-09  -8.095e-09   3.365e+02
 -5.974e+04   1.102e+04   1.112e+04   7.271e-07  -4.017e-09   3.378e+02
 -2.783e+04   7.998e+04   8.029e+04   1.107e-06  -1.865e-09   3.385e+02
Element     4
  1.613e+05   6.439e+04   6.466e+04  -9.432e-07  -9.965e-09   3.174e+02
  7.223e+04   8.878e+03   8.977e+03  -6.160e-07  -7.578e-09   3.172e+02
 -3.272e+04  -3.250e+04  -3.278e+04   2.975e-09  -3.052e-09   3.170e+02
 -5.388e+04   9.708e+03   8.977e+03   6.200e-07   1.474e-09   3.168e+02
 -3.128e+04   6.565e+04   6.466e+04   9.448e-07   3.862e-09   3.167e+02
Element     5
  1.352e+05   4.996e+04   4.989e+04  -8.001e-07  -9.487e-09   2.937e+02
  6.273e+04   7.026e+03   6.917e+03  -5.230e-07  -7.640e-09   2.940e+02
 -2.518e+04  -2.509e+04  -2.531e+04   1.081e-09  -4.138e-09   2.946e+02
 -4.842e+04   7.301e+03   6.917e+03   5.238e-07  -6.355e-10   2.953e+02
 -3.463e+04   5.038e+04   4.989e+04   7.989e-07   1.212e-09   2.956e+02
Element     6
  1.129e+05   3.824e+04   3.823e+04  -6.568e-07  -9.748e-09   2.720e+02
  5.419e+04   5.360e+03   5.307e+03  -4.299e-07  -7.656e-09   2.720e+02
 -1.922e+04  -1.922e+04  -1.939e+04  -3.613e-10  -3.692e-09   2.721e+02
 -4.308e+04   5.627e+03   5.307e+03   4.281e-07   2.732e-10   2.721e+02
 -3.570e+04   3.865e+04   3.823e+04   6.537e-07   2.365e-09   2.721e+02
Element     7
  9.368e+04   2.883e+04   2.880e+04  -5.294e-07  -7.364e-09   2.498e+02
  4.651e+04   4.047e+03   3.995e+03  -3.470e-07  -5.862e-09   2.499e+02
 -1.440e+04  -1.449e+04  -1.461e+04  -1.588e-09  -3.015e-09   2.502e+02
 -3.797e+04   4.226e+03   3.995e+03   3.431e-07  -1.676e-10   2.505e+02
 -3.536e+04   2.910e+04   2.880e+04   5.246e-07   1.334e-09   2.506e+02
Element     8
  7.721e+04   2.135e+04   2.133e+04  -4.170e-07  -7.186e-09   2.297e+02
  3.960e+04   2.999e+03   2.960e+03  -2.736e-07  -5.660e-09   2.297e+02
 -1.058e+04  -1.073e+04  -1.082e+04  -2.080e-09  -2.767e-09   2.298e+02
 -3.311e+04   3.131e+03   2.960e+03   2.690e-07   1.255e-10   2.299e+02
 -3.386e+04   2.155e+04   2.133e+04   4.118e-07   1.652e-09   2.299e+02
Element     9
  6.306e+04   1.546e+04   1.545e+04  -3.225e-07  -6.915e-09   2.111e+02
  3.339e+04   2.171e+03   2.143e+03  -2.122e-07  -5.491e-09   2.112e+02
 -7.569e+03  -7.768e+03  -7.836e+03  -3.332e-09  -2.791e-09   2.114e+02
 -2.851e+04   2.266e+03   2.143e+03   2.052e-07  -9.110e-11   2.115e+02
 -3.148e+04   1.561e+04   1.545e+04   3.151e-07   1.333e-09   2.116e+02
Element    10
  5.086e+04   1.088e+04   1.087e+04  -2.407e-07  -4.527e-09   1.950e+02
  2.778e+04   1.527e+03   1.508e+03  -1.585e-07  -3.470e-09   1.950e+02
 -5.228e+03  -5.465e+03  -5.512e+03  -2.845e-09  -1.467e-09   1.951e+02
 -2.415e+04   1.596e+03   1.508e+03   1.526e-07   5.359e-10   1.952e+02
 -2.845e+04   1.098e+04   1.087e+04   2.345e-07   1.593e-09   1.952e+02
Element    11
  4.029e+04   7.349e+03   7.346e+03  -1.748e-07  -4.434e-09   1.811e+02
  2.268e+04   1.030e+03   1.019e+03  -1.157e-07  -3.419e-09   1.811e+02
 -3.427e+03  -3.694e+03  -3.726e+03  -3.950e-09  -1.493e-09   1.812e+02
 -2.001e+04   1.080e+03   1.019e+03   1.077e-07   4.320e-10   1.812e+02
 -2.493e+04   7.424e+03   7.346e+03   1.666e-07   1.448e-09   1.813e+02
Element    12
  3.105e+04   4.680e+03   4.682e+03  -1.203e-07  -3.171e-09   1.695e+02
  1.801e+04   6.543e+02   6.498e+02  -7.964e-08  -2.443e-09   1.695e+02
 -2.065e+03  -2.354e+03  -2.374e+03  -2.699e-09  -1.061e-09   1.696e+02
 -1.607e+04   6.907e+02   6.498e+02   7.418e-08   3.196e-10   1.696e+02
 -2.102e+04   4.736e+03   4.682e+03   1.147e-07   1.048e-09   1.697e+02
Element    13
  2.290e+04   2.719e+03   2.720e+03  -7.858e-08  -5.199e-09   1.603e+02
  1.369e+04   3.803e+02   3.775e+02  -5.294e-08  -4.275e-09   1.603e+02
 -1.062e+03  -1.368e+03  -1.379e+03  -4.367e-09  -2.523e-09   1.604e+02
 -1.229e+04   4.010e+02   3.775e+02   4.418e-08  -7.707e-10   1.604e+02
 -1.680e+04   2.751e+03   2.720e+03   6.977e-08   1.536e-10   1.604e+02
Element    14
  1.564e+04   1.329e+03   1.349e+03  -4.503e-08  -2.486e-09   1.535e+02
  9.654e+03   1.756e+02   1.873e+02  -3.102e-08  -2.150e-09   1.535e+02
 -3.607e+02  -6.782e+02  -6.839e+02  -4.482e-09  -1.512e-09   1.535e+02
 -8.628e+03   2.118e+02   1.873e+02   2.205e-08  -8.753e-10   1.535e+02
 -1.228e+04   1.384e+03   1.349e+03   3.604e-08  -5.392e-10   1.535e+02
Element    15
  9.090e+03   5.374e+02   4.683e+02  -2.270e-08  -1.309e-10   1.489e+02
  5.821e+03   1.108e+02   6.511e+01  -1.634e-08  -1.830e-10   1.489e+02
  8.950e+01  -2.354e+02  -2.373e+02  -4.289e-09  -2.819e-10   1.490e+02
 -5.036e+03   2.356e+01   6.511e+01   7.760e-09  -3.807e-10   1.490e+02
 -7.495e+03   4.040e+02   4.683e+02   1.411e-08  -4.329e-10   1.490e+02
Element    16
  3.143e+03  -2.956e+02   6.417e+01  -8.250e-09   1.516e-09   1.467e+02
  2.138e+03  -2.264e+02   9.107e+00  -6.393e-09   1.053e-09   1.467e+02
  2.963e+02  -3.225e+01  -3.219e+01  -2.873e-09   1.744e-10   1.467e+02
 -1.462e+03   2.446e+02   9.107e+00   6.467e-10  -7.038e-10   1.467e+02
 -2.357e+03   4.240e+02   6.417e+01   2.504e-09  -1.167e-09   1.467e+02



TIME =   1.000e+00

Nodal Displacements

 Node          U1          U2          U3
    1   0.000e+00   0.000e+00   0.000e+00
    2   5.943e-03   4.214e-03   5.115e-02
    3  -4.614e-03   2.863e-03   2.042e-01
    4  -4.696e-02   2.721e-03   4.492e-01
    5  -1.281e-01   2.353e-03   7.698e-01
    6  -2.516e-01   2.062e-03   1.152e+00
    7  -4.177e-01   1.787e-03   1.583e+00
    8  -6.246e-01   1.539e-03   2.053e+00
    9  -8.694e-01   1.312e-03   2.554e+00
   10  -1.148e+00   1.106e-03   3.078e+00
   11  -1.457e+00   9.174e-04   3.620e+00
   12  -1.790e+00   7.437e-04   4.175e+00
   13  -2.145e+00   5.824e-04   4.740e+00
   14  -2.516e+00   4.303e-04   5.313e+00
   15  -2.900e+00   2.882e-04   5.890e+00
   16  -3.291e+00   1.374e-04   6.471e+00
   17  -3.687e+00   5.432e-05   7.053e+00
   18   0.000e+00   0.000e+00   0.000e+00
   19   5.943e-03  -4.214e-03   5.115e-02
   20  -4.614e-03  -2.863e-03   2.042e-01
   21  -4.696e-02  -2.721e-03   4.492e-01
   22  -1.281e-01  -2.353e-03   7.698e-01
   23  -2.516e-01  -2.062e-03   1.152e+00
   24  -4.177e-01  -1.787e-03   1.583e+00
   25  -6.246e-01  -1.539e-03   2.053e+00
   26  -8.694e-01  -1.312e-03   2.554e+00
   27  -1.148e+00  -1.106e-03   3.078e+00
   28  -1.457e+00  -9.174e-04   3.620e+00
   29  -1.790e+00  -7.437e-04   4.175e+00
   30  -2.145e+00  -5.824e-04   4.740e+00
   31  -2.516e+00  -4.303e-04   5.313e+00
   32  -2.900e+00  -2.882e-04   5.890e+00
   33  -3.291e+00  -1.374e-04   6.471e+00
   34  -3.687e+00  -5.432e-05   7.053e+00
   35   0.000e+00   0.000e+00   0.000e+00
   36  -1.006e-02  -4.273e-03   4.950e-02
   37  -3.666e-02  -2.896e-03   1.987e-01
   38  -9.211e-02  -2.746e-03   4.383e-01
   39  -1.841e-01  -2.367e-03   7.525e-01
   40  -3.164e-01  -2.069e-03   1.128e+00
   41  -4.895e-01  -1.787e-03   1.553e+00
   42  -7.020e-01  -1.534e-03   2.017e+00
   43  -9.511e-01  -1.304e-03   2.512e+00
   44  -1.233e+00  -1.095e-03   3.031e+00
   45  -1.544e+00  -9.037e-04   3.568e+00
   46  -1.880e+00  -7.283e-04   4.120e+00
   47  -2.236e+00  -5.657e-04   4.682e+00
   48  -2.608e+00  -4.128e-04   5.252e+00
   49  -2.992e+00  -2.701e-04   5.828e+00
   50  -3.384e+00  -1.189e-04   6.408e+00
   51  -3.780e+00  -3.568e-05   6.989e+00
   52   0.000e+00   0.000e+00   0.000e+00
   53  -1.006e-02   4.273e-03   4.950e-02
   54  -3.666e-02   2.896e-03   1.987e-01
   55  -9.211e-02   2.746e-03   4.383e-01
   56  -1.841e-01   2.367e-03   7.525e-01
   57  -3.164e-01   2.069e-03   1.128e+00
   58  -4.895e-01   1.787e-03   1.553e+00
   59  -7.020e-01   1.534e-03   2.017e+00
   60  -9.511e-01   1.304e-03   2.512e+00
   61  -1.233e+00   1.095e-03   3.031e+00
   62  -1.544e+00   9.037e-04   3.568e+00
   63  -1.880e+00   7.283e-04   4.120e+00
   64  -2.236e+00   5.657e-04   4.682e+00
   65  -2.608e+00   4.128e-04   5.252e+00
   66  -2.992e+00   2.701e-04   5.828e+00
   67  -3.384e+00   1.189e-04   6.408e+00
   68  -3.780e+00   3.568e-05   6.989e+00

Element Stress

        S11         S22         S33         S12         S23         S13
Element     1
  2.448e+05   1.306e+05   1.013e+05  -5.752e-09   2.266e-11   3.957e+02
  1.077e+05   3.327e+04   1.397e+04  -3.745e-09   5.501e-11   3.926e+02
 -5.170e+04  -5.121e+04  -5.152e+04   4.543e-11   1.163e-10   3.868e+02
 -7.966e+04  -4.669e+03   1.397e+04   3.815e-09   1.777e-10   3.810e+02
 -4.145e+04   7.268e+04   1.013e+05   5.795e-09   2.100e-10   3.779e+02
Element     2
  2.529e+05   1.176e+05   1.241e+05  -1.044e-08   1.644e-11   3.975e+02
  1.014e+05   1.315e+04   1.726e+04  -6.805e-09   3.155e-11   3.974e+02
 -6.301e+04  -6.237e+04  -6.290e+04   7.541e-11   6.020e-11   3.973e+02
 -6.659e+04   2.259e+04   1.726e+04   6.929e-09   8.884e-11   3.972e+02
 -3.683e+03   1.321e+05   1.241e+05   1.053e-08   1.040e-10   3.971e+02
Element     3
  2.032e+05   8.998e+04   8.871e+04  -7.981e-09  -6.975e-12   3.687e+02
  8.716e+04   1.324e+04   1.229e+04  -5.193e-09  -1.024e-11   3.694e+02
 -4.500e+04  -4.463e+04  -4.502e+04   7.617e-11  -1.644e-11   3.708e+02
 -6.216e+04   1.222e+04   1.229e+04   5.327e-09  -2.263e-11   3.722e+02
 -2.488e+04   8.843e+04   8.871e+04   8.089e-09  -2.590e-11   3.730e+02
Element     4
  1.717e+05   7.034e+04   7.066e+04  -5.896e-09  -1.028e-10   3.472e+02
  7.593e+04   9.691e+03   9.811e+03  -3.862e-09  -7.846e-11   3.471e+02
 -3.574e+04  -3.552e+04  -3.583e+04  -1.596e-11  -3.228e-11   3.468e+02
 -5.585e+04   1.062e+04   9.811e+03   3.818e-09   1.390e-11   3.466e+02
 -2.957e+04   7.176e+04   7.066e+04   5.836e-09   3.826e-11   3.464e+02
Element     5
  1.425e+05   5.394e+04   5.388e+04  -4.312e-09   9.586e-11   3.186e+02
  6.548e+04   7.578e+03   7.471e+03  -2.799e-09   5.972e-11   3.189e+02
 -2.718e+04  -2.710e+04  -2.734e+04   6.379e-11  -8.787e-12   3.196e+02
 -5.000e+04   7.895e+03   7.471e+03   2.921e-09  -7.730e-11   3.203e+02
 -3.390e+04   5.443e+04   5.388e+04   4.425e-09  -1.134e-10   3.207e+02
Element     6
  1.180e+05   4.083e+04   4.083e+04  -3.074e-09  -4.746e-11   2.924e+02
  5.621e+04   5.717e+03   5.667e+03  -2.015e-09  -4.429e-11   2.924e+02
 -2.050e+04  -2.053e+04  -2.070e+04  -1.257e-11  -3.828e-11   2.925e+02
 -4.429e+04   6.016e+03   5.667e+03   1.986e-09  -3.228e-11   2.925e+02
 -3.553e+04   4.129e+04   4.083e+04   3.039e-09  -2.911e-11   2.925e+02
Element     7
  9.713e+04   3.044e+04   3.043e+04  -2.426e-09  -9.067e-10   2.660e+02
  4.794e+04   4.270e+03   4.220e+03  -1.631e-09  -7.657e-10   2.661e+02
 -1.518e+04  -1.530e+04  -1.543e+04  -1.270e-10  -4.982e-10   2.665e+02
 -3.887e+04   4.469e+03   4.220e+03   1.374e-09  -2.308e-10   2.668e+02
 -3.548e+04   3.075e+04   3.043e+04   2.165e-09  -8.969e-11   2.669e+02
Element     8
  7.947e+04   2.231e+04   2.230e+04  -1.325e-09   3.950e-11   2.423e+02
  4.059e+04   3.131e+03   3.095e+03  -8.980e-10   3.325e-11   2.423e+02
 -1.103e+04  -1.121e+04  -1.131e+04  -8.768e-11   2.138e-11   2.424e+02
 -3.375e+04   3.277e+03   3.095e+03   7.230e-10   9.522e-12   2.425e+02
 -3.409e+04   2.254e+04   2.230e+04   1.151e-09   3.264e-12   2.425e+02
Element     9
  6.448e+04   1.601e+04   1.600e+04  -3.610e-10  -4.289e-10   2.206e+02
  3.405e+04   2.245e+03   2.219e+03  -7.538e-11  -3.885e-10   2.207e+02
 -7.807e+03  -8.045e+03  -8.115e+03   4.665e-10  -3.117e-10   2.208e+02
 -2.893e+04   2.350e+03   2.219e+03   1.009e-09  -2.350e-10   2.210e+02
 -3.172e+04   1.617e+04   1.600e+04   1.296e-09  -1.946e-10   2.211e+02
Element    10
  5.172e+04   1.116e+04   1.116e+04  -1.400e-09  -1.490e-11   2.019e+02
  2.820e+04   1.565e+03   1.549e+03  -1.127e-09  -2.529e-11   2.019e+02
 -5.333e+03  -5.611e+03  -5.660e+03  -6.108e-10  -4.498e-11   2.020e+02
 -2.441e+04   1.641e+03   1.549e+03  -9.648e-11  -6.467e-11   2.020e+02
 -2.864e+04   1.128e+04   1.116e+04   1.742e-10  -7.505e-11   2.021e+02
Element    11
  4.077e+04   7.485e+03   7.485e+03  -2.280e-11  -5.216e-10   1.858e+02
  2.294e+04   1.047e+03   1.039e+03   1.801e-10  -2.759e-10   1.858e+02
 -3.454e+03  -3.764e+03  -3.796e+03   5.637e-10   1.899e-10   1.859e+02
 -2.015e+04   1.103e+03   1.039e+03   9.461e-10   6.556e-10   1.860e+02
 -2.505e+04   7.569e+03   7.485e+03   1.147e-09   9.013e-10   1.860e+02
Element    12
  3.131e+04   4.735e+03   4.740e+03   2.928e-09   6.101e-10   1.726e+02
  1.817e+04   6.606e+02   6.579e+02   2.706e-09   4.930e-10   1.726e+02
 -2.051e+03  -2.383e+03  -2.404e+03   2.288e-09   2.711e-10   1.726e+02
 -1.613e+04   7.011e+02   6.579e+02   1.873e-09   4.926e-11   1.727e+02
 -2.108e+04   4.797e+03   4.740e+03   1.656e-09  -6.778e-11   1.727e+02
Element    13
  2.303e+04   2.736e+03   2.739e+03   3.839e-10   3.974e-11   1.621e+02
  1.378e+04   3.815e+02   3.802e+02   1.954e-10  -1.092e-10   1.621e+02
 -1.028e+03  -1.377e+03  -1.389e+03  -1.614e-10  -3.915e-10   1.621e+02
 -1.229e+04   4.052e+02   3.802e+02  -5.178e-10  -6.738e-10   1.622e+02
 -1.680e+04   2.773e+03   2.739e+03  -7.056e-10  -8.228e-10   1.622e+02
Element    14
  1.571e+04   1.331e+03   1.353e+03  -5.996e-10   8.137e-10   1.543e+02
  9.711e+03   1.751e+02   1.879e+02  -4.827e-10   7.484e-10   1.543e+02
 -3.194e+02  -6.803e+02  -6.860e+02  -2.613e-10   6.246e-10   1.543e+02
 -8.597e+03   2.134e+02   1.879e+02  -4.019e-11   5.009e-10   1.544e+02
 -1.226e+04   1.390e+03   1.353e+03   7.634e-11   4.356e-10   1.544e+02
Element    15
  9.134e+03   5.365e+02   4.684e+02   1.418e-09   1.060e-10   1.491e+02
  5.865e+03   1.102e+02   6.513e+01   9.325e-10   6.479e-11   1.492e+02
  1.328e+02  -2.355e+02  -2.374e+02   1.286e-11  -1.337e-11   1.492e+02
 -4.993e+03   2.423e+01   6.513e+01  -9.057e-10  -9.154e-11   1.492e+02
 -7.452e+03   4.052e+02   4.684e+02  -1.390e-09  -1.328e-10   1.492e+02
Element    16
  3.184e+03  -2.956e+02   6.410e+01  -1.201e-09  -9.026e-10   1.466e+02
  2.180e+03  -2.264e+02   9.097e+00  -1.202e-09  -8.904e-10   1.466e+02
  3.397e+02  -3.221e+01  -3.216e+01  -1.204e-09  -8.673e-10   1.466e+02
 -1.418e+03   2.446e+02   9.097e+00  -1.207e-09  -8.441e-10   1.466e+02
 -2.312e+03   4.239e+02   6.410e+01  -1.208e-09  -8.319e-10   1.466e+02

		 *** Successful end of program ***
