

TIME =   1.000e-01

Nodal Displacements

 Node          U1          U2          U3
    1   0.000e+00   0.000e+00   0.000e+00
    2   1.238e-03   6.613e-04   8.096e-03
    3   2.115e-03   4.815e-04   3.283e-02
    4   2.008e-03   4.742e-04   7.386e-02
    5   6.551e-04   4.316e-04   1.298e-01
    6  -2.180e-03   3.964e-04   1.995e-01
    7  -6.644e-03   3.598e-04   2.818e-01
    8  -1.282e-02   3.235e-04   3.754e-01
    9  -2.071e-02   2.873e-04   4.792e-01
   10  -3.028e-02   2.512e-04   5.920e-01
   11  -4.144e-02   2.152e-04   7.127e-01
   12  -5.405e-02   1.792e-04   8.402e-01
   13  -6.794e-02   1.434e-04   9.731e-01
   14  -8.290e-02   1.074e-04   1.111e+00
   15  -9.872e-02   7.225e-05   1.251e+00
   16  -1.151e-01   3.357e-05   1.394e+00
   17  -1.319e-01   1.203e-05   1.538e+00
   18   0.000e+00   0.000e+00   0.000e+00
   19   1.238e-03  -6.613e-04   8.096e-03
   20   2.115e-03  -4.815e-04   3.283e-02
   21   2.008e-03  -4.742e-04   7.386e-02
   22   6.551e-04  -4.316e-04   1.298e-01
   23  -2.180e-03  -3.964e-04   1.995e-01
   24  -6.644e-03  -3.598e-04   2.818e-01
   25  -1.282e-02  -3.235e-04   3.754e-01
   26  -2.071e-02  -2.873e-04   4.792e-01
   27  -3.028e-02  -2.512e-04   5.920e-01
   28  -4.144e-02  -2.152e-04   7.127e-01
   29  -5.405e-02  -1.792e-04   8.402e-01
   30  -6.794e-02  -1.434e-04   9.731e-01
   31  -8.290e-02  -1.074e-04   1.111e+00
   32  -9.872e-02  -7.225e-05   1.251e+00
   33  -1.151e-01  -3.357e-05   1.394e+00
   34  -1.319e-01  -1.203e-05   1.538e+00
   35   0.000e+00   0.000e+00   0.000e+00
   36  -1.344e-03  -6.628e-04   8.054e-03
   37  -3.198e-03  -4.825e-04   3.268e-02
   38  -5.778e-03  -4.751e-04   7.355e-02
   39  -9.426e-03  -4.323e-04   1.293e-01
   40  -1.436e-02  -3.969e-04   1.988e-01
   41  -2.074e-02  -3.601e-04   2.808e-01
   42  -2.863e-02  -3.237e-04   3.741e-01
   43  -3.806e-02  -2.874e-04   4.777e-01
   44  -4.899e-02  -2.512e-04   5.903e-01
   45  -6.131e-02  -2.150e-04   7.107e-01
   46  -7.491e-02  -1.790e-04   8.379e-01
   47  -8.960e-02  -1.431e-04   9.708e-01
   48  -1.052e-01  -1.071e-04   1.108e+00
   49  -1.215e-01  -7.182e-05   1.249e+00
   50  -1.381e-01  -3.312e-05   1.392e+00
   51  -1.550e-01  -1.157e-05   1.536e+00
   52   0.000e+00   0.000e+00   0.000e+00
   53  -1.344e-03   6.628e-04   8.054e-03
   54  -3.198e-03   4.825e-04   3.268e-02
   55  -5.778e-03   4.751e-04   7.355e-02
   56  -9.426e-03   4.323e-04   1.293e-01
   57  -1.436e-02   3.969e-04   1.988e-01
   58  -2.074e-02   3.601e-04   2.808e-01
   59  -2.863e-02   3.237e-04   3.741e-01
   60  -3.806e-02   2.874e-04   4.777e-01
   61  -4.899e-02   2.512e-04   5.903e-01
   62  -6.131e-02   2.150e-04   7.107e-01
   63  -7.491e-02   1.790e-04   8.379e-01
   64  -8.960e-02   1.431e-04   9.708e-01
   65  -1.052e-01   1.071e-04   1.108e+00
   66  -1.215e-01   7.182e-05   1.249e+00
   67  -1.381e-01   3.312e-05   1.392e+00
   68  -1.550e-01   1.157e-05   1.536e+00

Element Stress

        S11         S22         S33         S12         S23         S13
Element     1
  2.316e+04   4.857e+03   2.430e+02  -4.211e-08   6.444e-10   4.018e+01
  1.502e+04   3.045e+03   2.202e+01  -2.754e-08   6.635e-10   4.010e+01
 -1.489e+02  -1.356e+02  -1.437e+02   6.116e-11   6.998e-10   3.995e+01
 -1.497e+04  -2.984e+03   2.202e+01   2.764e-08   7.360e-10   3.980e+01
 -2.266e+04  -4.352e+03   2.430e+02   4.217e-08   7.551e-10   3.972e+01
Element     2
  2.174e+04  -6.120e+02   3.188e+02  -7.262e-08   2.835e-10   4.001e+01
  1.405e+04  -5.728e+02   3.248e+01  -4.751e-08   3.039e-10   4.001e+01
 -1.864e+02  -1.676e+02  -1.822e+02   7.880e-11   3.427e-10   4.000e+01
 -1.398e+04   6.708e+02   3.248e+01   4.763e-08   3.814e-10   3.999e+01
 -2.108e+04   1.288e+03   3.188e+02   7.271e-08   4.018e-10   3.999e+01
Element     3
  2.017e+04   4.569e+02   2.520e+02  -6.469e-08  -3.043e-10   3.987e+01
  1.306e+04   1.621e+02   2.447e+01  -4.232e-08  -2.885e-10   3.989e+01
 -1.476e+02  -1.341e+02  -1.462e+02   6.477e-11  -2.587e-10   3.992e+01
 -1.301e+04  -8.638e+01   2.447e+01   4.243e-08  -2.289e-10   3.995e+01
 -1.965e+04   7.734e+01   2.520e+02   6.476e-08  -2.131e-10   3.997e+01
Element     4
  1.865e+04   1.905e+02   2.202e+02  -6.489e-08   5.222e-12   3.986e+01
  1.208e+04   5.415e+00   2.193e+01  -4.246e-08   1.934e-11   3.985e+01
 -1.272e+02  -1.164e+02  -1.268e+02   5.532e-11   4.609e-11   3.985e+01
 -1.203e+04   6.151e+01   2.193e+01   4.254e-08   7.285e-11   3.984e+01
 -1.818e+04   2.762e+02   2.202e+02   6.494e-08   8.697e-11   3.984e+01
Element     5
  1.712e+04   2.016e+02   1.849e+02  -6.210e-08  -1.096e-10   3.973e+01
  1.110e+04   3.161e+01   1.815e+01  -4.063e-08  -8.674e-11   3.974e+01
 -1.056e+02  -9.812e+01  -1.069e+02   5.467e-11  -4.337e-11   3.976e+01
 -1.105e+04   2.423e+01   1.815e+01   4.071e-08  -1.048e-14   3.977e+01
 -1.673e+04   1.904e+02   1.849e+02   6.215e-08   2.286e-11   3.978e+01
Element     6
  1.560e+04   1.596e+02   1.541e+02  -5.872e-08  -1.479e-10   3.966e+01
  1.012e+04   2.099e+01   1.527e+01  -3.843e-08  -1.331e-10   3.966e+01
 -8.632e+01  -8.158e+01  -8.884e+01   2.363e-11  -1.052e-10   3.966e+01
 -1.008e+04   2.573e+01   1.527e+01   3.845e-08  -7.729e-11   3.966e+01
 -1.527e+04   1.669e+02   1.541e+02   5.872e-08  -6.256e-11   3.966e+01
Element     7
  1.408e+04   1.321e+02   1.257e+02  -5.417e-08  -2.051e-10   3.954e+01
  9.150e+03   1.825e+01   1.239e+01  -3.545e-08  -1.695e-10   3.955e+01
 -6.880e+01  -6.668e+01  -7.263e+01   2.083e-11  -1.020e-10   3.955e+01
 -9.112e+03   1.977e+01   1.239e+01   3.548e-08  -3.452e-11   3.956e+01
 -1.381e+04   1.344e+02   1.257e+02   5.417e-08   1.077e-12   3.957e+01
Element     8
  1.258e+04   1.053e+02   1.005e+02  -4.868e-08  -3.242e-10   3.944e+01
  8.178e+03   1.443e+01   9.945e+00  -3.187e-08  -2.770e-10   3.945e+01
 -5.311e+01  -5.323e+01  -5.797e+01  -1.025e-11  -1.877e-10   3.945e+01
 -8.144e+03   1.601e+01   9.945e+00   3.184e-08  -9.830e-11   3.945e+01
 -1.236e+04   1.077e+02   1.005e+02   4.863e-08  -5.116e-11   3.946e+01
Element     9
  1.108e+04   8.191e+01   7.806e+01  -4.226e-08  -1.511e-11   3.934e+01
  7.209e+03   1.127e+01   7.704e+00  -2.766e-08  -2.096e-11   3.934e+01
 -3.921e+01  -4.138e+01  -4.507e+01   1.977e-11  -3.206e-11   3.935e+01
 -7.179e+03   1.234e+01   7.704e+00   2.769e-08  -4.316e-11   3.935e+01
 -1.090e+04   8.354e+01   7.806e+01   4.228e-08  -4.901e-11   3.936e+01
Element    10
  9.583e+03   6.143e+01   5.855e+01  -3.535e-08  -4.802e-10   3.924e+01
  6.243e+03   8.465e+00   5.794e+00  -2.316e-08  -4.337e-10   3.925e+01
 -2.709e+01  -3.102e+01  -3.377e+01  -4.699e-11  -3.455e-10   3.925e+01
 -6.215e+03   9.257e+00   5.794e+00   2.306e-08  -2.574e-10   3.925e+01
 -9.447e+03   6.264e+01   5.855e+01   3.524e-08  -2.109e-10   3.926e+01
Element    11
  8.096e+03   4.396e+01   4.185e+01  -2.794e-08   1.164e-10   3.916e+01
  5.279e+03   6.080e+00   4.138e+00  -1.830e-08   4.423e-11   3.916e+01
 -1.673e+01  -2.218e+01  -2.414e+01  -4.297e-11  -9.258e-11   3.916e+01
 -5.254e+03   6.575e+00   4.138e+00   1.821e-08  -2.294e-10   3.917e+01
 -7.993e+03   4.471e+01   4.185e+01   2.784e-08  -3.016e-10   3.917e+01
Element    12
  6.615e+03   2.920e+01   2.798e+01  -2.073e-08  -3.952e-10   3.908e+01
  4.317e+03   3.942e+00   2.775e+00  -1.360e-08  -3.826e-10   3.908e+01
 -8.127e+00  -1.482e+01  -1.613e+01  -7.038e-11  -3.587e-10   3.909e+01
 -4.295e+03   4.520e+00   2.775e+00   1.345e-08  -3.349e-10   3.909e+01
 -6.540e+03   3.008e+01   2.798e+01   2.059e-08  -3.223e-10   3.909e+01
Element    13
  5.139e+03   1.853e+01   1.691e+01  -1.387e-08   8.869e-11   3.902e+01
  3.358e+03   2.966e+00   1.679e+00  -9.107e-09  -6.569e-12   3.902e+01
 -1.257e+00  -8.958e+00  -9.742e+00  -7.031e-11  -1.871e-10   3.902e+01
 -3.337e+03   2.141e+00   1.679e+00   8.965e-09  -3.677e-10   3.903e+01
 -5.087e+03   1.727e+01   1.691e+01   1.373e-08  -4.630e-10   3.903e+01
Element    14
  3.669e+03   5.098e+00   8.644e+00  -8.105e-09  -4.070e-10   3.897e+01
  2.400e+03  -1.346e+00   8.656e-01  -5.338e-09  -4.127e-10   3.897e+01
  3.873e+00  -4.578e+00  -4.968e+00  -9.320e-11  -4.235e-10   3.897e+01
 -2.380e+03   3.949e+00   8.656e-01   5.151e-09  -4.343e-10   3.898e+01
 -3.633e+03   1.318e+01   8.644e+00   7.918e-09  -4.401e-10   3.898e+01
Element    15
  2.202e+03   2.240e+01   3.068e+00  -3.614e-09  -8.205e-11   3.894e+01
  1.443e+03   1.301e+01   3.132e-01  -2.376e-09  -8.238e-11   3.894e+01
  7.326e+00  -1.622e+00  -1.753e+00  -2.733e-11  -8.300e-11   3.894e+01
 -1.424e+03  -1.209e+01   3.132e-01   2.321e-09  -8.362e-11   3.894e+01
 -2.177e+03  -1.593e+01   3.068e+00   3.559e-09  -8.395e-11   3.894e+01
Element    16
  7.395e+02  -9.339e+01   4.363e-01  -1.029e-09   4.241e-10   3.892e+01
  4.870e+02  -6.137e+01   5.781e-02  -6.686e-10   3.151e-10   3.892e+01
  8.971e+00  -2.293e-01  -2.261e-01   1.365e-11   1.084e-10   3.892e+01
 -4.685e+02   6.149e+01   5.781e-02   6.959e-10  -9.825e-11   3.892e+01
 -7.202e+02   9.427e+01   4.363e-01   1.056e-09  -2.073e-10   3.892e+01



TIME =   2.000e-01

Nodal Displacements

 Node          U1          U2          U3
    1   0.000e+00   0.000e+00   0.000e+00
    2   2.285e-03   1.271e-03   1.561e-02
    3   3.098e-03   9.217e-04   6.321e-02
    4   5.017e-04   9.054e-04   1.420e-01
    5  -6.507e-03   8.215e-04   2.490e-01
    6  -1.875e-02   7.520e-04   3.819e-01
    7  -3.671e-02   6.805e-04   5.382e-01
    8  -6.065e-02   6.102e-04   7.154e-01
    9  -9.056e-02   5.404e-04   9.112e-01
   10  -1.263e-01   4.714e-04   1.123e+00
   11  -1.674e-01   4.029e-04   1.349e+00
   12  -2.135e-01   3.350e-04   1.587e+00
   13  -2.638e-01   2.677e-04   1.835e+00
   14  -3.178e-01   2.004e-04   2.091e+00
   15  -3.745e-01   1.348e-04   2.352e+00
   16  -4.332e-01   6.281e-05   2.617e+00
   17  -4.930e-01   2.277e-05   2.884e+00
   18   0.000e+00   0.000e+00   0.000e+00
   19   2.285e-03  -1.271e-03   1.561e-02
   20   3.098e-03  -9.217e-04   6.321e-02
   21   5.017e-04  -9.054e-04   1.420e-01
   22  -6.507e-03  -8.215e-04   2.490e-01
   23  -1.875e-02  -7.520e-04   3.819e-01
   24  -3.671e-02  -6.805e-04   5.382e-01
   25  -6.065e-02  -6.102e-04   7.154e-01
   26  -9.056e-02  -5.404e-04   9.112e-01
   27  -1.263e-01  -4.714e-04   1.123e+00
   28  -1.674e-01  -4.029e-04   1.349e+00
   29  -2.135e-01  -3.350e-04   1.587e+00
   30  -2.638e-01  -2.677e-04   1.835e+00
   31  -3.178e-01  -2.004e-04   2.091e+00
   32  -3.745e-01  -1.348e-04   2.352e+00
   33  -4.332e-01  -6.281e-05   2.617e+00
   34  -4.930e-01  -2.277e-05   2.884e+00
   35   0.000e+00   0.000e+00   0.000e+00
   36  -2.677e-03  -1.277e-03   1.545e-02
   37  -7.097e-03  -9.255e-04   6.267e-02
   38  -1.439e-02  -9.087e-04   1.408e-01
   39  -2.573e-02  -8.239e-04   2.471e-01
   40  -4.190e-02  -7.538e-04   3.792e-01
   41  -6.341e-02  -6.816e-04   5.346e-01
   42  -9.050e-02  -6.108e-04   7.108e-01
   43  -1.232e-01  -5.405e-04   9.057e-01
   44  -1.613e-01  -4.710e-04   1.117e+00
   45  -2.045e-01  -4.022e-04   1.342e+00
   46  -2.523e-01  -3.340e-04   1.579e+00
   47  -3.041e-01  -2.664e-04   1.827e+00
   48  -3.592e-01  -1.990e-04   2.082e+00
   49  -4.167e-01  -1.332e-04   2.343e+00
   50  -4.758e-01  -6.116e-05   2.607e+00
   51  -5.357e-01  -2.108e-05   2.874e+00
   52   0.000e+00   0.000e+00   0.000e+00
   53  -2.677e-03   1.277e-03   1.545e-02
   54  -7.097e-03   9.255e-04   6.267e-02
   55  -1.439e-02   9.087e-04   1.408e-01
   56  -2.573e-02   8.239e-04   2.471e-01
   57  -4.190e-02   7.538e-04   3.792e-01
   58  -6.341e-02   6.816e-04   5.346e-01
   59  -9.050e-02   6.108e-04   7.108e-01
   60  -1.232e-01   5.405e-04   9.057e-01
   61  -1.613e-01   4.710e-04   1.117e+00
   62  -2.045e-01   4.022e-04   1.342e+00
   63  -2.523e-01   3.340e-04   1.579e+00
   64  -3.041e-01   2.664e-04   1.827e+00
   65  -3.592e-01   1.990e-04   2.082e+00
   66  -4.167e-01   1.332e-04   2.343e+00
   67  -4.758e-01   6.116e-05   2.607e+00
   68  -5.357e-01   2.108e-05   2.874e+00

Element Stress

        S11         S22         S33         S12         S23         S13
Element     1
  4.498e+04   9.779e+03   8.988e+02  -7.917e-07   1.185e-08   8.048e+01
  2.892e+04   5.904e+03   8.144e+01  -5.173e-07   1.246e-08   8.019e+01
 -5.508e+02  -5.018e+02  -5.316e+02   2.176e-09   1.360e-08   7.963e+01
 -2.875e+04  -5.677e+03   8.144e+01   5.208e-07   1.475e-08   7.907e+01
 -4.312e+04  -7.911e+03   8.988e+02   7.940e-07   1.535e-08   7.878e+01
Element     2
  4.228e+04  -6.133e+02   1.174e+03  -1.383e-06   4.681e-09   8.003e+01
  2.701e+04  -1.035e+03   1.197e+02  -9.043e-07   5.345e-09   8.002e+01
 -6.862e+02  -6.173e+02  -6.711e+02   2.931e-09   6.605e-09   7.999e+01
 -2.675e+04   1.396e+03   1.197e+02   9.090e-07   7.864e-09   7.996e+01
 -3.984e+04   3.102e+03   1.174e+03   1.387e-06   8.529e-09   7.994e+01
Element     3
  3.903e+04   1.324e+03   9.218e+02  -1.224e-06  -6.851e-09   7.923e+01
  2.503e+04   3.656e+02   8.953e+01  -8.003e-07  -6.330e-09   7.929e+01
 -5.396e+02  -4.905e+02  -5.346e+02   2.319e-09  -5.344e-09   7.941e+01
 -2.482e+04  -8.857e+01   8.953e+01   8.039e-07  -4.357e-09   7.953e+01
 -3.710e+04   6.303e+02   9.218e+02   1.226e-06  -3.836e-09   7.959e+01
Element     4
  3.594e+04   7.497e+02   8.007e+02  -1.203e-06  -9.360e-10   7.892e+01
  2.307e+04   5.710e+01   7.977e+01  -7.867e-07  -4.214e-10   7.891e+01
 -4.618e+02  -4.234e+02  -4.609e+02   1.862e-09   5.541e-10   7.889e+01
 -2.288e+04   1.862e+02   7.977e+01   7.895e-07   1.530e-09   7.886e+01
 -3.426e+04   9.469e+02   8.007e+02   1.205e-06   2.044e-09   7.885e+01
Element     5
  3.286e+04   7.064e+02   6.679e+02  -1.154e-06  -2.657e-09   7.813e+01
  2.113e+04   9.987e+01   6.558e+01  -7.550e-07  -2.243e-09   7.817e+01
 -3.804e+02  -3.545e+02  -3.862e+02   1.415e-09  -1.459e-09   7.823e+01
 -2.096e+04   1.018e+02   6.558e+01   7.570e-07  -6.752e-10   7.829e+01
 -3.144e+04   7.094e+02   6.679e+02   1.155e-06  -2.616e-10   7.832e+01
Element     6
  2.982e+04   5.694e+02   5.531e+02  -1.105e-06  -1.996e-09   7.750e+01
  1.921e+04   7.297e+01   5.483e+01  -7.228e-07  -1.574e-09   7.750e+01
 -3.088e+02  -2.928e+02  -3.189e+02   9.766e-10  -7.744e-10   7.751e+01
 -1.906e+04   9.472e+01   5.483e+01   7.240e-07   2.521e-11   7.752e+01
 -2.864e+04   6.027e+02   5.531e+02   1.105e-06   4.470e-10   7.752e+01
Element     7
  2.682e+04   4.658e+02   4.486e+02  -1.047e-06  -1.741e-09   7.671e+01
  1.731e+04   6.156e+01   4.419e+01  -6.852e-07  -1.506e-09   7.673e+01
 -2.442e+02  -2.379e+02  -2.591e+02   5.221e-10  -1.060e-09   7.676e+01
 -1.717e+04   7.407e+01   4.419e+01   6.857e-07  -6.133e-10   7.680e+01
 -2.585e+04   4.849e+02   4.486e+02   1.047e-06  -3.778e-10   7.682e+01
Element     8
  2.387e+04   3.699e+02   3.564e+02  -9.802e-07  -1.781e-09   7.599e+01
  1.543e+04   4.889e+01   3.528e+01  -6.415e-07  -1.468e-09   7.600e+01
 -1.869e+02  -1.888e+02  -2.056e+02   1.897e-10  -8.749e-10   7.602e+01
 -1.530e+04   5.907e+01   3.528e+01   6.414e-07  -2.815e-10   7.603e+01
 -2.308e+04   3.855e+02   3.564e+02   9.795e-07   3.148e-11   7.604e+01
Element     9
  2.095e+04   2.862e+02   2.754e+02  -9.017e-07  -1.878e-09   7.526e+01
  1.356e+04   3.800e+01   2.718e+01  -5.903e-07  -1.583e-09   7.527e+01
 -1.366e+02  -1.460e+02  -1.590e+02  -2.212e-10  -1.022e-09   7.529e+01
 -1.345e+04   4.529e+01   2.718e+01   5.894e-07  -4.618e-10   7.531e+01
 -2.032e+04   2.974e+02   2.754e+02   9.003e-07  -1.662e-10   7.533e+01
Element    10
  1.807e+04   2.137e+02   2.055e+02  -8.106e-07  -1.268e-09   7.459e+01
  1.172e+04   2.848e+01   2.034e+01  -5.308e-07  -1.142e-09   7.460e+01
 -9.327e+01  -1.089e+02  -1.185e+02  -4.880e-10  -9.029e-10   7.462e+01
 -1.162e+04   3.373e+01   2.034e+01   5.295e-07  -6.637e-10   7.463e+01
 -1.758e+04   2.217e+02   2.055e+02   8.089e-07  -5.375e-10   7.464e+01
Element    11
  1.522e+04   1.522e+02   1.462e+02  -7.074e-07  -1.041e-09   7.398e+01
  9.890e+03   2.034e+01   1.446e+01  -4.633e-07  -9.286e-10   7.399e+01
 -5.652e+01  -7.750e+01  -8.437e+01  -7.305e-10  -7.152e-10   7.400e+01
 -9.799e+03   2.388e+01   1.446e+01   4.616e-07  -5.018e-10   7.402e+01
 -1.486e+04   1.576e+02   1.462e+02   7.055e-07  -3.892e-10   7.402e+01
Element    12
  1.240e+04   1.010e+02   9.743e+01  -5.930e-07  -1.033e-09   7.345e+01
  8.076e+03   1.331e+01   9.663e+00  -3.885e-07  -8.609e-10   7.346e+01
 -2.623e+01  -5.161e+01  -5.616e+01  -8.371e-10  -5.344e-10   7.347e+01
 -7.992e+03   1.615e+01   9.663e+00   3.866e-07  -2.079e-10   7.348e+01
 -1.214e+04   1.054e+02   9.743e+01   5.910e-07  -3.564e-11   7.348e+01
Element    13
  9.619e+03   6.244e+01   5.869e+01  -4.689e-07  -1.024e-09   7.302e+01
  6.274e+03   9.062e+00   5.830e+00  -3.073e-07  -8.751e-10   7.302e+01
 -2.201e+00  -3.109e+01  -3.381e+01  -1.156e-09  -5.935e-10   7.303e+01
 -6.197e+03   8.661e+00   5.830e+00   3.049e-07  -3.119e-10   7.304e+01
 -9.432e+03   6.183e+01   5.869e+01   4.664e-07  -1.634e-10   7.304e+01
Element    14
  6.857e+03   2.362e+01   2.993e+01  -3.393e-07  -1.373e-09   7.268e+01
  4.484e+03  -7.544e-01   2.998e+00  -2.226e-07  -1.241e-09   7.268e+01
  1.565e+01  -1.585e+01  -1.720e+01  -1.417e-09  -9.891e-10   7.269e+01
 -4.411e+03   9.767e+00   2.998e+00   2.197e-07  -7.376e-10   7.269e+01
 -6.729e+03   3.969e+01   2.993e+01   3.363e-07  -6.049e-10   7.270e+01
Element    15
  4.116e+03   4.653e+01   1.061e+01  -1.998e-07   1.036e-09   7.245e+01
  2.700e+03   2.473e+01   1.083e+00  -1.312e-07   8.338e-10   7.246e+01
  2.762e+01  -5.607e+00  -6.061e+00  -1.230e-09   4.506e-10   7.246e+01
 -2.630e+03  -2.154e+01   1.083e+00   1.287e-07   6.729e-11   7.246e+01
 -4.027e+03  -2.415e+01   1.061e+01   1.973e-07  -1.349e-10   7.246e+01
Element    16
  1.392e+03  -1.729e+02   1.507e+00  -8.418e-08  -8.334e-10   7.234e+01
  9.223e+02  -1.140e+02   1.998e-01  -5.564e-08  -7.633e-10   7.234e+01
  3.330e+01  -7.921e-01  -7.809e-01  -1.533e-09  -6.303e-10   7.234e+01
 -8.537e+02   1.144e+02   1.998e-01   5.257e-08  -4.974e-10   7.234e+01
 -1.321e+03   1.760e+02   1.507e+00   8.111e-08  -4.272e-10   7.234e+01



TIME =   3.000e-01

Nodal Displacements

 Node          U1          U2          U3
    1   0.000e+00   0.000e+00   0.000e+00
    2   3.131e-03   1.808e-03   2.224e-02
    3   3.188e-03   1.303e-03   8.992e-02
    4  -3.460e-03   1.275e-03   2.015e-01
    5  -1.880e-02   1.151e-03   3.525e-01
    6  -4.437e-02   1.049e-03   5.391e-01
    7  -8.102e-02   9.452e-04   7.574e-01
    8  -1.291e-01   8.439e-04   1.004e+00
    9  -1.886e-01   7.446e-04   1.275e+00
   10  -2.590e-01   6.471e-04   1.567e+00
   11  -3.396e-01   5.514e-04   1.877e+00
   12  -4.293e-01   4.573e-04   2.202e+00
   13  -5.269e-01   3.646e-04   2.539e+00
   14  -6.310e-01   2.726e-04   2.886e+00
   15  -7.402e-01   1.833e-04   3.240e+00
   16  -8.529e-01   8.566e-05   3.598e+00
   17  -9.674e-01   3.141e-05   3.959e+00
   18   0.000e+00   0.000e+00   0.000e+00
   19   3.131e-03  -1.808e-03   2.224e-02
   20   3.188e-03  -1.303e-03   8.992e-02
   21  -3.460e-03  -1.275e-03   2.015e-01
   22  -1.880e-02  -1.151e-03   3.525e-01
   23  -4.437e-02  -1.049e-03   5.391e-01
   24  -8.102e-02  -9.452e-04   7.574e-01
   25  -1.291e-01  -8.439e-04   1.004e+00
   26  -1.886e-01  -7.446e-04   1.275e+00
   27  -2.590e-01  -6.471e-04   1.567e+00
   28  -3.396e-01  -5.514e-04   1.877e+00
   29  -4.293e-01  -4.573e-04   2.202e+00
   30  -5.269e-01  -3.646e-04   2.539e+00
   31  -6.310e-01  -2.726e-04   2.886e+00
   32  -7.402e-01  -1.833e-04   3.240e+00
   33  -8.529e-01  -8.566e-05   3.598e+00
   34  -9.674e-01  -3.140e-05   3.959e+00
   35   0.000e+00   0.000e+00   0.000e+00
   36  -3.923e-03  -1.819e-03   2.193e-02
   37  -1.126e-02  -1.310e-03   8.884e-02
   38  -2.449e-02  -1.281e-03   1.992e-01
   39  -4.582e-02  -1.156e-03   3.488e-01
   40  -7.675e-02  -1.053e-03   5.337e-01
   41  -1.182e-01  -9.472e-04   7.502e-01
   42  -1.705e-01  -8.449e-04   9.948e-01
   43  -2.336e-01  -7.445e-04   1.264e+00
   44  -3.072e-01  -6.463e-04   1.554e+00
   45  -3.904e-01  -5.499e-04   1.863e+00
   46  -4.823e-01  -4.552e-04   2.187e+00
   47  -5.816e-01  -3.620e-04   2.523e+00
   48  -6.871e-01  -2.697e-04   2.869e+00
   49  -7.972e-01  -1.801e-04   3.222e+00
   50  -9.105e-01  -8.230e-05   3.580e+00
   51  -1.025e+00  -2.798e-05   3.941e+00
   52   0.000e+00   0.000e+00   0.000e+00
   53  -3.923e-03   1.819e-03   2.193e-02
   54  -1.126e-02   1.310e-03   8.884e-02
   55  -2.449e-02   1.281e-03   1.992e-01
   56  -4.582e-02   1.156e-03   3.488e-01
   57  -7.675e-02   1.053e-03   5.337e-01
   58  -1.182e-01   9.472e-04   7.502e-01
   59  -1.705e-01   8.449e-04   9.948e-01
   60  -2.336e-01   7.445e-04   1.264e+00
   61  -3.072e-01   6.463e-04   1.554e+00
   62  -3.904e-01   5.499e-04   1.863e+00
   63  -4.823e-01   4.552e-04   2.187e+00
   64  -5.816e-01   3.620e-04   2.523e+00
   65  -6.871e-01   2.697e-04   2.869e+00
   66  -7.972e-01   1.801e-04   3.222e+00
   67  -9.105e-01   8.230e-05   3.580e+00
   68  -1.025e+00   2.798e-05   3.941e+00

Element Stress

        S11         S22         S33         S12         S23         S13
Element     1
  6.452e+04   1.445e+04   1.818e+03  -4.668e-06   6.177e-08   1.207e+02
  4.118e+04   8.450e+03   1.647e+02  -3.048e-06   6.814e-08   1.201e+02
 -1.114e+03  -1.015e+03  -1.075e+03   1.827e-08   8.023e-08   1.189e+02
 -4.083e+04  -7.991e+03   1.647e+02   3.077e-06   9.232e-08   1.178e+02
 -6.075e+04  -1.067e+04   1.818e+03   4.688e-06   9.870e-08   1.172e+02
Element     2
  6.061e+04  -2.012e+02   2.360e+03  -8.174e-06   1.994e-08   1.200e+02
  3.834e+04  -1.406e+03   2.407e+02  -5.340e-06   2.714e-08   1.200e+02
 -1.378e+03  -1.241e+03  -1.349e+03   2.423e-08   4.080e-08   1.199e+02
 -3.781e+04   2.132e+03   2.407e+02   5.379e-06   5.445e-08   1.199e+02
 -5.571e+04   5.203e+03   2.360e+03   8.200e-06   6.166e-08   1.199e+02
Element     3
  5.561e+04   2.404e+03   1.835e+03  -7.342e-06  -4.493e-08   1.179e+02
  3.536e+04   5.758e+02   1.783e+02  -4.798e-06  -3.918e-08   1.180e+02
 -1.073e+03  -9.765e+02  -1.064e+03   1.929e-08  -2.829e-08   1.182e+02
 -3.494e+04  -2.455e+01   1.783e+02   4.828e-06  -1.739e-08   1.185e+02
 -5.176e+04   1.487e+03   1.835e+03   7.361e-06  -1.164e-08   1.186e+02
Element     4
  5.094e+04   1.503e+03   1.580e+03  -7.296e-06  -1.516e-08   1.167e+02
  3.245e+04   1.282e+02   1.575e+02  -4.769e-06  -9.058e-09   1.167e+02
 -9.093e+02  -8.354e+02  -9.094e+02   1.506e-08   2.513e-09   1.167e+02
 -3.207e+04   3.519e+02   1.575e+02   4.791e-06   1.408e-08   1.166e+02
 -4.762e+04   1.845e+03   1.580e+03   7.308e-06   2.019e-08   1.166e+02
Element     5
  4.633e+04   1.359e+03   1.306e+03  -6.944e-06  -2.729e-08   1.145e+02
  2.959e+04   1.809e+02   1.282e+02  -4.541e-06  -2.240e-08   1.146e+02
 -7.412e+02  -6.930e+02  -7.549e+02   1.038e-08  -1.315e-08   1.147e+02
 -2.925e+04   2.134e+02   1.282e+02   4.555e-06  -3.891e-09   1.148e+02
 -4.355e+04   1.409e+03   1.306e+03   6.950e-06   9.918e-10   1.149e+02
Element     6
  4.182e+04   1.094e+03   1.072e+03  -6.504e-06  -2.654e-08   1.126e+02
  2.678e+04   1.356e+02   1.063e+02  -4.255e-06  -2.160e-08   1.126e+02
 -5.951e+02  -5.673e+02  -6.177e+02   5.770e-09  -1.223e-08   1.126e+02
 -2.647e+04   1.893e+02   1.063e+02   4.261e-06  -2.863e-09   1.126e+02
 -3.952e+04   1.176e+03   1.072e+03   6.503e-06   2.079e-09   1.126e+02
Element     7
  3.743e+04   8.864e+02   8.615e+02  -5.941e-06  -2.801e-08   1.103e+02
  2.402e+04   1.128e+02   8.489e+01  -3.888e-06  -2.395e-08   1.104e+02
 -4.652e+02  -4.568e+02  -4.976e+02   1.081e-09  -1.624e-08   1.104e+02
 -2.375e+04   1.476e+02   8.489e+01   3.885e-06  -8.537e-09   1.105e+02
 -3.555e+04   9.395e+02   8.615e+02   5.932e-06  -4.473e-09   1.105e+02
Element     8
  3.314e+04   6.987e+02   6.789e+02  -5.279e-06  -3.004e-08   1.082e+02
  2.132e+04   8.930e+01   6.723e+01  -3.456e-06  -2.599e-08   1.083e+02
 -3.517e+02  -3.596e+02  -3.915e+02  -3.427e-09  -1.830e-08   1.083e+02
 -2.108e+04   1.163e+02   6.723e+01   3.446e-06  -1.062e-08   1.083e+02
 -3.163e+04   7.400e+02   6.789e+02   5.264e-06  -6.564e-09   1.083e+02
Element     9
  2.896e+04   5.366e+02   5.204e+02  -4.540e-06  -2.991e-08   1.062e+02
  1.868e+04   6.898e+01   5.138e+01  -2.974e-06  -2.656e-08   1.062e+02
 -2.535e+02  -2.759e+02  -3.004e+02  -7.742e-09  -2.020e-08   1.062e+02
 -1.846e+04   8.840e+01   5.138e+01   2.956e-06  -1.385e-08   1.063e+02
 -2.777e+04   5.663e+02   5.204e+02   4.518e-06  -1.050e-08   1.063e+02
Element    10
  2.487e+04   3.980e+02   3.857e+02  -3.753e-06  -2.931e-08   1.043e+02
  1.608e+04   5.142e+01   3.819e+01  -2.460e-06  -2.628e-08   1.043e+02
 -1.699e+02  -2.043e+02  -2.224e+02  -1.122e-08  -2.053e-08   1.043e+02
 -1.588e+04   6.531e+01   3.819e+01   2.436e-06  -1.478e-08   1.043e+02
 -2.396e+04   4.192e+02   3.857e+02   3.726e-06  -1.175e-08   1.044e+02
Element    11
  2.088e+04   2.817e+02   2.728e+02  -2.951e-06  -2.735e-08   1.026e+02
  1.353e+04   3.649e+01   2.698e+01  -1.936e-06  -2.493e-08   1.026e+02
 -9.987e+01  -1.446e+02  -1.574e+02  -1.411e-08  -2.034e-08   1.026e+02
 -1.335e+04   4.598e+01   2.698e+01   1.907e-06  -1.575e-08   1.026e+02
 -2.019e+04   2.962e+02   2.728e+02   2.920e-06  -1.333e-08   1.026e+02
Element    12
  1.697e+04   1.861e+02   1.808e+02  -2.173e-06  -2.621e-08   1.011e+02
  1.103e+04   2.382e+01   1.793e+01  -1.428e-06  -2.377e-08   1.011e+02
 -4.277e+01  -9.576e+01  -1.042e+02  -1.697e-08  -1.915e-08   1.011e+02
 -1.086e+04   3.084e+01   1.793e+01   1.393e-06  -1.453e-08   1.011e+02
 -1.646e+04   1.968e+02   1.808e+02   2.137e-06  -1.209e-08   1.011e+02
Element    13
  1.312e+04   1.136e+02   1.084e+02  -1.454e-06  -2.048e-08   9.986e+01
  8.552e+03   1.561e+01   1.077e+01  -9.579e-07  -1.864e-08   9.987e+01
  2.097e+00  -5.744e+01  -6.246e+01  -1.769e-08  -1.517e-08   9.989e+01
 -8.397e+03   1.713e+01   1.077e+01   9.221e-07  -1.170e-08   9.990e+01
 -1.277e+04   1.160e+02   1.084e+02   1.418e-06  -9.869e-09   9.991e+01
Element    14
  9.342e+03   4.643e+01   5.512e+01  -8.453e-07  -1.627e-08   9.893e+01
  6.108e+03   5.383e-01   5.523e+00  -5.600e-07  -1.496e-08   9.894e+01
  3.518e+01  -2.919e+01  -3.167e+01  -1.931e-08  -1.246e-08   9.895e+01
 -5.960e+03   1.606e+01   5.523e+00   5.212e-07  -9.968e-09   9.896e+01
 -9.092e+03   7.014e+01   5.512e+01   8.063e-07  -8.653e-09   9.896e+01
Element    15
  5.607e+03   6.790e+01   1.949e+01  -3.912e-07  -1.013e-08   9.831e+01
  3.683e+03   3.391e+01   1.990e+00  -2.634e-07  -9.373e-09   9.831e+01
  5.724e+01  -1.030e+01  -1.114e+01  -2.099e-08  -7.940e-09   9.832e+01
 -3.542e+03  -2.806e+01   1.990e+00   2.213e-07  -6.508e-09   9.832e+01
 -5.429e+03  -2.677e+01   1.949e+01   3.491e-07  -5.752e-09   9.833e+01
Element    16
  1.909e+03  -2.336e+02   2.766e+00  -1.346e-07  -5.251e-09   9.799e+01
  1.272e+03  -1.544e+02   3.667e-01  -9.517e-08  -4.830e-09   9.799e+01
  6.770e+01  -1.454e+00  -1.433e+00  -2.042e-08  -4.032e-09   9.799e+01
 -1.133e+03   1.551e+02   3.667e-01   5.433e-08  -3.234e-09   9.800e+01
 -1.765e+03   2.392e+02   2.766e+00   9.376e-08  -2.813e-09   9.800e+01



TIME =   4.000e-01

Nodal Displacements

 Node          U1          U2          U3
    1   0.000e+00   0.000e+00   0.000e+00
    2   3.805e-03   2.273e-03   2.801e-02
    3   2.682e-03   1.626e-03   1.130e-01
    4  -8.843e-03   1.585e-03   2.526e-01
    5  -3.378e-02   1.423e-03   4.406e-01
    6  -7.434e-02   1.290e-03   6.717e-01
    7  -1.317e-01   1.156e-03   9.405e-01
    8  -2.061e-01   1.027e-03   1.242e+00
    9  -2.974e-01   9.019e-04   1.572e+00
   10  -4.047e-01   7.806e-04   1.926e+00
   11  -5.267e-01   6.627e-04   2.300e+00
   12  -6.619e-01   5.479e-04   2.691e+00
   13  -8.084e-01   4.358e-04   3.095e+00
   14  -9.641e-01   3.253e-04   3.509e+00
   15  -1.127e+00   2.186e-04   3.931e+00
   16  -1.295e+00   1.024e-04   4.358e+00
   17  -1.465e+00   3.797e-05   4.787e+00
   18   0.000e+00   0.000e+00   0.000e+00
   19   3.805e-03  -2.273e-03   2.801e-02
   20   2.682e-03  -1.626e-03   1.130e-01
   21  -8.843e-03  -1.585e-03   2.526e-01
   22  -3.378e-02  -1.423e-03   4.406e-01
   23  -7.434e-02  -1.290e-03   6.717e-01
   24  -1.317e-01  -1.156e-03   9.405e-01
   25  -2.061e-01  -1.027e-03   1.242e+00
   26  -2.974e-01  -9.019e-04   1.572e+00
   27  -4.047e-01  -7.806e-04   1.926e+00
   28  -5.267e-01  -6.627e-04   2.300e+00
   29  -6.619e-01  -5.479e-04   2.691e+00
   30  -8.084e-01  -4.358e-04   3.095e+00
   31  -9.641e-01  -3.253e-04   3.509e+00
   32  -1.127e+00  -2.186e-04   3.931e+00
   33  -1.295e+00  -1.024e-04   4.358e+00
   34  -1.465e+00  -3.797e-05   4.787e+00
   35   0.000e+00   0.000e+00   0.000e+00
   36  -5.057e-03  -2.291e-03   2.751e-02
   37  -1.541e-02  -1.638e-03   1.113e-01
   38  -3.505e-02  -1.594e-03   2.491e-01
   39  -6.729e-02  -1.430e-03   4.348e-01
   40  -1.143e-01  -1.295e-03   6.633e-01
   41  -1.772e-01  -1.159e-03   9.295e-01
   42  -2.566e-01  -1.028e-03   1.229e+00
   43  -3.521e-01  -9.014e-04   1.556e+00
   44  -4.629e-01  -7.789e-04   1.907e+00
   45  -5.879e-01  -6.600e-04   2.279e+00
   46  -7.255e-01  -5.443e-04   2.668e+00
   47  -8.738e-01  -4.315e-04   3.070e+00
   48  -1.031e+00  -3.205e-04   3.483e+00
   49  -1.195e+00  -2.135e-04   3.904e+00
   50  -1.363e+00  -9.710e-05   4.330e+00
   51  -1.534e+00  -3.255e-05   4.759e+00
   52   0.000e+00   0.000e+00   0.000e+00
   53  -5.057e-03   2.291e-03   2.751e-02
   54  -1.541e-02   1.638e-03   1.113e-01
   55  -3.505e-02   1.594e-03   2.491e-01
   56  -6.729e-02   1.430e-03   4.348e-01
   57  -1.143e-01   1.295e-03   6.633e-01
   58  -1.772e-01   1.159e-03   9.295e-01
   59  -2.566e-01   1.028e-03   1.229e+00
   60  -3.521e-01   9.014e-04   1.556e+00
   61  -4.629e-01   7.789e-04   1.907e+00
   62  -5.879e-01   6.600e-04   2.279e+00
   63  -7.255e-01   5.443e-04   2.668e+00
   64  -8.738e-01   4.315e-04   3.070e+00
   65  -1.031e+00   3.205e-04   3.483e+00
   66  -1.195e+00   2.135e-04   3.904e+00
   67  -1.363e+00   9.710e-05   4.330e+00
   68  -1.534e+00   3.255e-05   4.759e+00

Element Stress

        S11         S22         S33         S12         S23         S13
Element     1
  8.170e+04   1.874e+04   2.874e+03  -2.824e-08   3.269e-10   1.606e+02
  5.181e+04   1.068e+04   2.603e+02  -1.842e-08   3.872e-10   1.597e+02
 -1.760e+03  -1.605e+03  -1.700e+03   1.386e-10   5.015e-10   1.579e+02
 -5.126e+04  -9.951e+03   2.603e+02   1.865e-08   6.157e-10   1.561e+02
 -7.574e+04  -1.277e+04   2.874e+03   2.839e-08   6.760e-10   1.551e+02
Element     2
  7.661e+04   4.406e+02   3.703e+03  -4.999e-08   1.912e-10   1.599e+02
  4.805e+04  -1.711e+03   3.779e+02  -3.264e-08   2.271e-10   1.599e+02
 -2.161e+03  -1.947e+03  -2.116e+03   1.928e-10   2.952e-10   1.598e+02
 -4.723e+04   2.850e+03   3.779e+02   3.295e-08   3.632e-10   1.598e+02
 -6.892e+04   7.408e+03   3.703e+03   5.020e-08   3.991e-10   1.597e+02
Element     3
  6.981e+04   3.546e+03   2.846e+03  -4.461e-08  -2.466e-10   1.557e+02
  4.408e+04   7.736e+02   2.765e+02  -2.913e-08  -2.009e-10   1.559e+02
 -1.661e+03  -1.515e+03  -1.651e+03   1.634e-10  -1.142e-10   1.563e+02
 -4.342e+04   8.112e+01   2.765e+02   2.940e-08  -2.753e-11   1.567e+02
 -6.384e+04   2.488e+03   2.846e+03   4.479e-08   1.818e-11   1.569e+02
Element     4
  6.358e+04   2.314e+03   2.426e+03  -4.339e-08  -1.565e-10   1.531e+02
  4.025e+04   2.011e+02   2.419e+02  -2.836e-08  -1.119e-10   1.531e+02
 -1.392e+03  -1.282e+03  -1.396e+03   9.457e-11  -2.742e-11   1.530e+02
 -3.965e+04   5.359e+02   2.419e+02   2.849e-08   5.705e-11   1.530e+02
 -5.847e+04   2.826e+03   2.426e+03   4.345e-08   1.016e-10   1.529e+02
Element     5
  5.746e+04   2.041e+03   1.983e+03  -4.064e-08   1.286e-12   1.488e+02
  3.650e+04   2.595e+02   1.947e+02  -2.656e-08   2.430e-11   1.489e+02
 -1.121e+03  -1.052e+03  -1.146e+03   1.003e-10   6.791e-11   1.491e+02
 -3.597e+04   3.390e+02   1.947e+02   2.671e-08   1.115e-10   1.493e+02
 -5.324e+04   2.162e+03   1.983e+03   4.073e-08   1.345e-10   1.494e+02
Element     6
  5.157e+04   1.632e+03   1.610e+03  -3.739e-08   7.795e-11   1.448e+02
  3.286e+04   1.958e+02   1.598e+02  -2.441e-08   8.017e-11   1.448e+02
 -8.883e+02  -8.524e+02  -9.280e+02   1.633e-10   8.439e-11   1.448e+02
 -3.239e+04   2.923e+02   1.598e+02   2.470e-08   8.860e-11   1.448e+02
 -4.810e+04   1.780e+03   1.610e+03   3.763e-08   9.083e-11   1.449e+02
Element     7
  4.589e+04   1.308e+03   1.281e+03  -3.363e-08   4.159e-10   1.403e+02
  2.933e+04   1.612e+02   1.263e+02  -2.193e-08   3.759e-10   1.404e+02
 -6.850e+02  -6.794e+02  -7.399e+02   2.307e-10   3.002e-10   1.405e+02
 -2.891e+04   2.260e+02   1.263e+02   2.236e-08   2.245e-10   1.406e+02
 -4.308e+04   1.407e+03   1.281e+03   3.402e-08   1.845e-10   1.406e+02
Element     8
  4.041e+04   1.022e+03   9.999e+02  -2.975e-08  -1.039e-10   1.361e+02
  2.591e+04   1.268e+02   9.906e+01  -1.944e-08  -4.861e-12   1.362e+02
 -5.102e+02  -5.296e+02  -5.766e+02   7.674e-11   1.828e-10   1.362e+02
 -2.554e+04   1.760e+02   9.906e+01   1.957e-08   3.706e-10   1.363e+02
 -3.818e+04   1.097e+03   9.999e+02   2.985e-08   4.696e-10   1.363e+02
Element     9
  3.514e+04   7.780e+02   7.597e+02  -2.517e-08   3.868e-10   1.321e+02
  2.260e+04   9.722e+01   7.502e+01  -1.641e-08   3.358e-10   1.321e+02
 -3.613e+02  -4.027e+02  -4.385e+02   1.872e-10   2.390e-10   1.322e+02
 -2.226e+04   1.325e+02   7.502e+01   1.677e-08   1.423e-10   1.322e+02
 -3.338e+04   8.318e+02   7.597e+02   2.550e-08   9.128e-11   1.323e+02
Element    10
  3.004e+04   5.724e+02   5.584e+02  -2.138e-08  -1.586e-09   1.284e+02
  1.938e+04   7.195e+01   5.532e+01  -1.407e-08  -1.200e-09   1.284e+02
 -2.364e+02  -2.958e+02  -3.220e+02  -2.034e-10  -4.689e-10   1.284e+02
 -1.907e+04   9.705e+01   5.532e+01   1.364e-08   2.627e-10   1.285e+02
 -2.870e+04   6.108e+02   5.584e+02   2.094e-08   6.486e-10   1.285e+02
Element    11
  2.512e+04   4.022e+02   3.921e+02  -1.635e-08  -1.046e-09   1.251e+02
  1.626e+04   5.064e+01   3.880e+01  -1.071e-08  -9.613e-10   1.251e+02
 -1.333e+02  -2.078e+02  -2.262e+02  -2.050e-11  -8.016e-10   1.251e+02
 -1.597e+04   6.789e+01   3.880e+01   1.066e-08  -6.419e-10   1.252e+02
 -2.411e+04   4.285e+02   3.921e+02   1.629e-08  -5.577e-10   1.252e+02
Element    12
  2.035e+04   2.641e+02   2.583e+02  -1.093e-08   4.069e-10   1.222e+02
  1.321e+04   3.285e+01   2.563e+01  -7.019e-09   2.940e-10   1.223e+02
 -5.027e+01  -1.368e+02  -1.489e+02   3.947e-10   8.005e-11   1.223e+02
 -1.295e+04   4.525e+01   2.563e+01   7.804e-09  -1.339e-10   1.223e+02
 -1.961e+04   2.830e+02   2.583e+02   1.171e-08  -2.468e-10   1.223e+02
Element    13
  1.570e+04   1.597e+02   1.541e+02  -7.684e-09   1.465e-10   1.199e+02
  1.023e+04   2.101e+01   1.532e+01  -4.912e-09   2.210e-10   1.199e+02
  1.431e+01  -8.167e+01  -8.879e+01   3.412e-10   3.622e-10   1.200e+02
 -9.982e+03   2.552e+01   1.532e+01   5.591e-09   5.033e-10   1.200e+02
 -1.517e+04   1.666e+02   1.541e+02   8.360e-09   5.778e-10   1.200e+02
Element    14
  1.116e+04   6.718e+01   7.806e+01  -3.971e-09   8.479e-10   1.182e+02
  7.296e+03   1.694e+00   7.825e+00  -2.514e-09   7.561e-10   1.182e+02
  6.152e+01  -4.134e+01  -4.485e+01   2.475e-10   5.822e-10   1.182e+02
 -7.064e+03   2.181e+01   7.825e+00   3.008e-09   4.082e-10   1.182e+02
 -1.078e+04   9.791e+01   7.806e+01   4.464e-09   3.164e-10   1.182e+02
Element    15
  6.696e+03   8.454e+01   2.754e+01  -6.575e-10   9.077e-10   1.170e+02
  4.405e+03   4.046e+01   2.812e+00  -3.692e-11   8.907e-10   1.170e+02
  9.281e+01  -1.455e+01  -1.573e+01   1.139e-09   8.585e-10   1.170e+02
 -4.181e+03  -3.220e+01   2.812e+00   2.316e-09   8.263e-10   1.170e+02
 -6.421e+03  -2.645e+01   2.754e+01   2.936e-09   8.093e-10   1.170e+02
Element    16
  2.296e+03  -2.770e+02   3.902e+00   1.210e-09   7.643e-10   1.164e+02
  1.539e+03  -1.834e+02   5.175e-01   1.005e-09   4.531e-10   1.164e+02
  1.076e+02  -2.051e+00  -2.021e+00   6.174e-10  -1.369e-10   1.164e+02
 -1.318e+03   1.844e+02   5.175e-01   2.297e-10  -7.268e-10   1.164e+02
 -2.069e+03   2.849e+02   3.902e+00   2.527e-11  -1.038e-09   1.164e+02



TIME =   5.000e-01

Nodal Displacements

 Node          U1          U2          U3
    1   0.000e+00   0.000e+00   0.000e+00
    2   4.348e-03   2.678e-03   3.305e-02
    3   1.803e-03   1.902e-03   1.331e-01
    4  -1.495e-02   1.844e-03   2.966e-01
    5  -4.990e-02   1.645e-03   5.157e-01
    6  -1.058e-01   1.483e-03   7.835e-01
    7  -1.839e-01   1.322e-03   1.093e+00
    8  -2.845e-01   1.168e-03   1.439e+00
    9  -4.069e-01   1.021e-03   1.815e+00
   10  -5.498e-01   8.796e-04   2.217e+00
   11  -7.115e-01   7.439e-04   2.640e+00
   12  -8.898e-01   6.130e-04   3.079e+00
   13  -1.082e+00   4.862e-04   3.532e+00
   14  -1.286e+00   3.624e-04   3.996e+00
   15  -1.499e+00   2.433e-04   4.466e+00
   16  -1.718e+00   1.143e-04   4.942e+00
   17  -1.939e+00   4.284e-05   5.420e+00
   18   0.000e+00   0.000e+00   0.000e+00
   19   4.348e-03  -2.678e-03   3.305e-02
   20   1.803e-03  -1.902e-03   1.331e-01
   21  -1.495e-02  -1.844e-03   2.966e-01
   22  -4.990e-02  -1.645e-03   5.157e-01
   23  -1.058e-01  -1.483e-03   7.835e-01
   24  -1.839e-01  -1.322e-03   1.093e+00
   25  -2.845e-01  -1.168e-03   1.439e+00
   26  -4.069e-01  -1.021e-03   1.815e+00
   27  -5.498e-01  -8.796e-04   2.217e+00
   28  -7.115e-01  -7.439e-04   2.640e+00
   29  -8.898e-01  -6.130e-04   3.079e+00
   30  -1.082e+00  -4.862e-04   3.532e+00
   31  -1.286e+00  -3.624e-04   3.996e+00
   32  -1.499e+00  -2.433e-04   4.466e+00
   33  -1.718e+00  -1.143e-04   4.942e+00
   34  -1.939e+00  -4.284e-05   5.420e+00
   35   0.000e+00   0.000e+00   0.000e+00
   36  -6.084e-03  -2.703e-03   3.236e-02
   37  -1.942e-02  -1.917e-03   1.307e-01
   38  -4.555e-02  -1.857e-03   2.918e-01
   39  -8.880e-02  -1.654e-03   5.078e-01
   40  -1.519e-01  -1.489e-03   7.722e-01
   41  -2.362e-01  -1.325e-03   1.079e+00
   42  -3.421e-01  -1.169e-03   1.421e+00
   43  -4.690e-01  -1.020e-03   1.794e+00
   44  -6.157e-01  -8.768e-04   2.192e+00
   45  -7.804e-01  -7.397e-04   2.612e+00
   46  -9.612e-01  -6.077e-04   3.049e+00
   47  -1.155e+00  -4.801e-04   3.500e+00
   48  -1.361e+00  -3.556e-04   3.962e+00
   49  -1.575e+00  -2.361e-04   4.432e+00
   50  -1.794e+00  -1.069e-04   4.906e+00
   51  -2.016e+00  -3.529e-05   5.384e+00
   52   0.000e+00   0.000e+00   0.000e+00
   53  -6.084e-03   2.703e-03   3.236e-02
   54  -1.942e-02   1.917e-03   1.307e-01
   55  -4.555e-02   1.857e-03   2.918e-01
   56  -8.880e-02   1.654e-03   5.078e-01
   57  -1.519e-01   1.489e-03   7.722e-01
   58  -2.362e-01   1.325e-03   1.079e+00
   59  -3.421e-01   1.169e-03   1.421e+00
   60  -4.690e-01   1.020e-03   1.794e+00
   61  -6.157e-01   8.768e-04   2.192e+00
   62  -7.804e-01   7.397e-04   2.612e+00
   63  -9.612e-01   6.077e-04   3.049e+00
   64  -1.155e+00   4.801e-04   3.500e+00
   65  -1.361e+00   3.556e-04   3.962e+00
   66  -1.575e+00   2.361e-04   4.432e+00
   67  -1.794e+00   1.069e-04   4.906e+00
   68  -2.016e+00   3.529e-05   5.384e+00

Element Stress

        S11         S22         S33         S12         S23         S13
Element     1
  9.685e+04   2.266e+04   3.988e+03  -1.871e-09   2.326e-11   2.003e+02
  6.107e+04   1.263e+04   3.612e+02  -1.220e-09   2.526e-11   1.990e+02
 -2.442e+03  -2.228e+03  -2.359e+03   1.113e-11   2.904e-11   1.965e+02
 -6.031e+04  -1.162e+04   3.612e+02   1.238e-09   3.282e-11   1.940e+02
 -8.857e+04  -1.438e+04   3.988e+03   1.883e-09   3.482e-11   1.927e+02
Element     2
  9.058e+04   1.193e+03   5.099e+03  -3.389e-09   2.451e-12   1.997e+02
  5.640e+04  -1.972e+03   5.205e+02  -2.211e-09   1.016e-11   1.997e+02
 -2.973e+03  -2.681e+03  -2.914e+03   1.736e-11   2.479e-11   1.996e+02
 -5.526e+04   3.540e+03   5.205e+02   2.240e-09   3.941e-11   1.996e+02
 -7.999e+04   9.613e+03   5.099e+03   3.410e-09   4.713e-11   1.995e+02
Element     3
  8.195e+04   4.669e+03   3.870e+03  -2.665e-09  -1.766e-11   1.928e+02
  5.144e+04   9.522e+02   3.761e+02  -1.741e-09  -2.205e-11   1.931e+02
 -2.255e+03  -2.060e+03  -2.245e+03   7.321e-12  -3.037e-11   1.936e+02
 -5.054e+04   2.094e+02   3.761e+02   1.751e-09  -3.869e-11   1.942e+02
 -7.383e+04   3.535e+03   3.870e+03   2.669e-09  -4.308e-11   1.944e+02
Element     4
  7.416e+04   3.108e+03   3.262e+03  -1.904e-09   4.304e-11   1.882e+02
  4.671e+04   2.677e+02   3.256e+02  -1.221e-09   5.958e-11   1.881e+02
 -1.867e+03  -1.725e+03  -1.877e+03   7.099e-11   9.095e-11   1.881e+02
 -4.589e+04   7.235e+02   3.256e+02   1.360e-09   1.223e-10   1.880e+02
 -6.728e+04   3.804e+03   3.262e+03   2.039e-09   1.389e-10   1.879e+02
Element     5
  6.660e+04   2.689e+03   2.635e+03  -1.465e-09   8.446e-11   1.810e+02
  4.212e+04   3.295e+02   2.588e+02  -9.516e-10   4.784e-11   1.811e+02
 -1.482e+03  -1.399e+03  -1.523e+03   2.104e-11  -2.157e-11   1.814e+02
 -4.140e+04   4.657e+02   2.588e+02   9.918e-10  -9.099e-11   1.817e+02
 -6.097e+04   2.897e+03   2.635e+03   1.503e-09  -1.276e-10   1.818e+02
Element     6
  5.939e+04   2.131e+03   2.116e+03  -1.469e-09  -3.577e-10   1.743e+02
  3.770e+04   2.484e+02   2.101e+02  -9.990e-10  -2.795e-10   1.743e+02
 -1.159e+03  -1.120e+03  -1.219e+03  -1.100e-10  -1.313e-10   1.743e+02
 -3.707e+04   3.930e+02   2.101e+02   7.767e-10   1.685e-11   1.744e+02
 -5.482e+04   2.352e+03   2.116e+03   1.244e-09   9.502e-11   1.744e+02
Element     7
  5.253e+04   1.689e+03   1.665e+03  -5.726e-10   2.408e-10   1.670e+02
  3.347e+04   2.025e+02   1.641e+02  -2.824e-10   2.842e-10   1.671e+02
 -8.800e+02  -8.831e+02  -9.616e+02   2.666e-10   3.665e-10   1.672e+02
 -3.291e+04   3.006e+02   1.641e+02   8.140e-10   4.487e-10   1.674e+02
 -4.886e+04   1.839e+03   1.665e+03   1.102e-09   4.922e-10   1.674e+02
Element     8
  4.600e+04   1.307e+03   1.286e+03  -5.245e-10   3.700e-10   1.602e+02
  2.942e+04   1.581e+02   1.275e+02  -3.865e-10   2.618e-10   1.602e+02
 -6.445e+02  -6.812e+02  -7.415e+02  -1.249e-10   5.680e-11   1.603e+02
 -2.891e+04   2.314e+02   1.275e+02   1.370e-10  -1.482e-10   1.604e+02
 -4.310e+04   1.419e+03   1.286e+03   2.752e-10  -2.564e-10   1.604e+02
Element     9
  3.979e+04   9.854e+02   9.678e+02  -5.657e-10  -3.520e-10   1.537e+02
  2.554e+04   1.201e+02   9.559e+01  -3.503e-10  -3.248e-10   1.537e+02
 -4.473e+02  -5.130e+02  -5.585e+02   5.720e-11  -2.732e-10   1.538e+02
 -2.508e+04   1.724e+02   9.559e+01   4.636e-10  -2.216e-10   1.539e+02
 -3.753e+04   1.065e+03   9.678e+02   6.775e-10  -1.944e-10   1.539e+02
Element    10
  3.387e+04   7.188e+02   7.053e+02  -1.423e-09  -1.279e-09   1.478e+02
  2.181e+04   8.814e+01   6.990e+01  -1.121e-09  -9.484e-10   1.478e+02
 -2.844e+02  -3.736e+02  -4.066e+02  -5.507e-10  -3.211e-10   1.479e+02
 -2.140e+04   1.253e+02   6.990e+01   1.770e-11   3.062e-10   1.479e+02
 -3.214e+04   7.755e+02   7.053e+02   3.167e-10   6.371e-10   1.479e+02
Element    11
  2.820e+04   5.010e+02   4.914e+02  -2.179e-10  -4.409e-10   1.425e+02
  1.823e+04   6.146e+01   4.864e+01  -2.452e-11  -2.168e-10   1.426e+02
 -1.519e+02  -2.605e+02  -2.835e+02   3.409e-10   2.079e-10   1.426e+02
 -1.785e+04   8.708e+01   4.864e+01   7.050e-10   6.327e-10   1.427e+02
 -2.691e+04   5.402e+02   4.914e+02   8.965e-10   8.567e-10   1.427e+02
Element    12
  2.277e+04   3.267e+02   3.216e+02  -3.129e-10  -2.394e-11   1.381e+02
  1.477e+04   3.950e+01   3.194e+01  -1.455e-10  -4.058e-11   1.381e+02
 -4.647e+01  -1.704e+02  -1.853e+02   1.718e-10  -7.213e-11   1.382e+02
 -1.441e+04   5.773e+01   3.194e+01   4.890e-10  -1.037e-10   1.382e+02
 -2.181e+04   3.545e+02   3.216e+02   6.564e-10  -1.203e-10   1.382e+02
Element    13
  1.752e+04   1.960e+02   1.909e+02  -1.709e-10  -9.541e-10   1.345e+02
  1.141e+04   2.481e+01   1.898e+01  -3.190e-10  -8.827e-10   1.345e+02
  3.457e+01  -1.012e+02  -1.100e+02  -5.996e-10  -7.474e-10   1.345e+02
 -1.108e+04   3.283e+01   1.898e+01  -8.804e-10  -6.120e-10   1.346e+02
 -1.683e+04   2.082e+02   1.909e+02  -1.029e-09  -5.406e-10   1.346e+02
Element    14
  1.243e+04   8.334e+01   9.631e+01  -5.871e-10  -3.214e-10   1.318e+02
  8.135e+03   2.389e+00   9.659e+00  -5.696e-10  -2.558e-10   1.318e+02
  9.329e+01  -5.101e+01  -5.533e+01  -5.363e-10  -1.314e-10   1.318e+02
 -7.814e+03   2.660e+01   9.659e+00  -5.028e-10  -7.026e-12   1.318e+02
 -1.193e+04   1.203e+02   9.631e+01  -4.851e-10   5.858e-11   1.318e+02
Element    15
  7.461e+03   9.641e+01   3.388e+01   2.795e-09   1.652e-09   1.299e+02
  4.917e+03   4.480e+01   3.461e+00   2.437e-09   1.423e-09   1.299e+02
  1.319e+02  -1.791e+01  -1.935e+01   1.760e-09   9.904e-10   1.299e+02
 -4.606e+03  -3.464e+01   3.461e+00   1.083e-09   5.576e-10   1.299e+02
 -7.087e+03  -2.493e+01   3.388e+01   7.270e-10   3.293e-10   1.300e+02
Element    16
  2.576e+03  -3.067e+02   4.795e+00  -2.032e-09  -1.643e-09   1.290e+02
  1.737e+03  -2.033e+02   6.360e-01  -1.537e-09  -1.141e-09   1.290e+02
  1.501e+02  -2.520e+00  -2.483e+00  -5.991e-10  -1.894e-10   1.290e+02
 -1.430e+03   2.046e+02   6.360e-01   3.385e-10   7.619e-10   1.290e+02
 -2.261e+03   3.164e+02   4.795e+00   8.330e-10   1.264e-09   1.290e+02



TIME =   6.000e-01

Nodal Displacements

 Node          U1          U2          U3
    1   0.000e+00   0.000e+00   0.000e+00
    2   4.791e-03   3.035e-03   3.750e-02
    3   6.940e-04   2.138e-03   1.507e-01
    4  -2.140e-02   2.063e-03   3.349e-01
    5  -6.630e-02   1.829e-03   5.805e-01
    6  -1.372e-01   1.639e-03   8.790e-01
    7  -2.353e-01   1.452e-03   1.223e+00
    8  -3.607e-01   1.277e-03   1.604e+00
    9  -5.123e-01   1.110e-03   2.016e+00
   10  -6.883e-01   9.520e-04   2.455e+00
   11  -8.863e-01   8.019e-04   2.915e+00
   12  -1.104e+00   6.586e-04   3.391e+00
   13  -1.337e+00   5.211e-04   3.880e+00
   14  -1.585e+00   3.876e-04   4.379e+00
   15  -1.842e+00   2.601e-04   4.886e+00
   16  -2.105e+00   1.225e-04   5.396e+00
   17  -2.373e+00   4.642e-05   5.909e+00
   18   0.000e+00   0.000e+00   0.000e+00
   19   4.791e-03  -3.035e-03   3.750e-02
   20   6.940e-04  -2.138e-03   1.507e-01
   21  -2.140e-02  -2.063e-03   3.349e-01
   22  -6.630e-02  -1.829e-03   5.805e-01
   23  -1.372e-01  -1.639e-03   8.790e-01
   24  -2.353e-01  -1.452e-03   1.223e+00
   25  -3.607e-01  -1.277e-03   1.604e+00
   26  -5.123e-01  -1.110e-03   2.016e+00
   27  -6.883e-01  -9.520e-04   2.455e+00
   28  -8.863e-01  -8.019e-04   2.915e+00
   29  -1.104e+00  -6.586e-04   3.391e+00
   30  -1.337e+00  -5.211e-04   3.880e+00
   31  -1.585e+00  -3.876e-04   4.379e+00
   32  -1.842e+00  -2.601e-04   4.886e+00
   33  -2.105e+00  -1.225e-04   5.396e+00
   34  -2.373e+00  -4.642e-05   5.909e+00
   35   0.000e+00   0.000e+00   0.000e+00
   36  -7.021e-03  -3.067e-03   3.661e-02
   37  -2.325e-02  -2.158e-03   1.477e-01
   38  -5.575e-02  -2.079e-03   3.288e-01
   39  -1.098e-01  -1.840e-03   5.705e-01
   40  -1.884e-01  -1.646e-03   8.648e-01
   41  -2.932e-01  -1.455e-03   1.204e+00
   42  -4.241e-01  -1.277e-03   1.581e+00
   43  -5.803e-01  -1.108e-03   1.990e+00
   44  -7.600e-01  -9.479e-04   2.425e+00
   45  -9.611e-01  -7.961e-04   2.881e+00
   46  -1.181e+00  -6.515e-04   3.354e+00
   47  -1.417e+00  -5.130e-04   3.841e+00
   48  -1.665e+00  -3.788e-04   4.339e+00
   49  -1.923e+00  -2.508e-04   4.844e+00
   50  -2.187e+00  -1.130e-04   5.354e+00
   51  -2.455e+00  -3.671e-05   5.866e+00
   52   0.000e+00   0.000e+00   0.000e+00
   53  -7.021e-03   3.067e-03   3.661e-02
   54  -2.325e-02   2.158e-03   1.477e-01
   55  -5.575e-02   2.079e-03   3.288e-01
   56  -1.098e-01   1.840e-03   5.705e-01
   57  -1.884e-01   1.646e-03   8.648e-01
   58  -2.932e-01   1.455e-03   1.204e+00
   59  -4.241e-01   1.277e-03   1.581e+00
   60  -5.803e-01   1.108e-03   1.990e+00
   61  -7.600e-01   9.479e-04   2.425e+00
   62  -9.611e-01   7.961e-04   2.881e+00
   63  -1.181e+00   6.515e-04   3.354e+00
   64  -1.417e+00   5.130e-04   3.841e+00
   65  -1.665e+00   3.788e-04   4.339e+00
   66  -1.923e+00   2.508e-04   4.844e+00
   67  -2.187e+00   1.130e-04   5.354e+00
   68  -2.455e+00   3.671e-05   5.866e+00

Element Stress

        S11         S22         S33         S12         S23         S13
Element     1
  1.103e+05   2.626e+04   5.120e+03  -1.451e-06   1.666e-08   2.398e+02
  6.923e+04   1.436e+04   4.638e+02  -9.455e-07   2.017e-08   2.382e+02
 -3.134e+03  -2.861e+03  -3.028e+03   9.128e-09   2.681e-08   2.350e+02
 -6.826e+04  -1.307e+04   4.638e+02   9.599e-07   3.346e-08   2.318e+02
 -9.970e+04  -1.562e+04   5.120e+03   1.460e-06   3.697e-08   2.301e+02
Element     2
  1.029e+05   1.990e+03   6.494e+03  -2.609e-06   2.371e-09   2.394e+02
  6.366e+04  -2.203e+03   6.633e+02  -1.702e-06   6.017e-09   2.394e+02
 -3.783e+03  -3.414e+03  -3.710e+03   1.309e-08   1.293e-08   2.393e+02
 -6.220e+04   4.200e+03   6.633e+02   1.723e-06   1.984e-08   2.393e+02
 -8.938e+04   1.177e+04   6.494e+03   2.623e-06   2.348e-08   2.393e+02
Element     3
  9.240e+04   5.740e+03   4.866e+03  -2.250e-06  -2.197e-08   2.292e+02
  5.772e+04   1.111e+03   4.729e+02  -1.469e-06  -1.908e-08   2.296e+02
 -2.830e+03  -2.590e+03  -2.822e+03   9.127e-09  -1.359e-08   2.303e+02
 -5.657e+04   3.483e+02   4.729e+02   1.483e-06  -8.098e-09   2.309e+02
 -8.218e+04   4.574e+03   4.866e+03   2.258e-06  -5.202e-09   2.313e+02
Element     4
  8.308e+04   3.851e+03   4.055e+03  -2.049e-06  -1.183e-08   2.220e+02
  5.210e+04   3.256e+02   4.049e+02  -1.339e-06  -8.698e-09   2.220e+02
 -2.313e+03  -2.143e+03  -2.332e+03   6.167e-09  -2.757e-09   2.219e+02
 -5.107e+04   9.063e+02   4.049e+02   1.347e-06   3.185e-09   2.218e+02
 -7.451e+04   4.739e+03   4.055e+03   2.054e-06   6.319e-09   2.217e+02
Element     5
  7.411e+04   3.278e+03   3.236e+03  -1.871e-06  -1.209e-08   2.114e+02
  4.670e+04   3.894e+02   3.178e+02  -1.223e-06  -9.623e-09   2.115e+02
 -1.811e+03  -1.718e+03  -1.871e+03   3.691e-09  -4.943e-09   2.119e+02
 -4.580e+04   5.867e+02   3.178e+02   1.228e-06  -2.627e-10   2.122e+02
 -6.719e+04   3.580e+03   3.236e+03   1.872e-06   2.206e-09   2.124e+02
Element     6
  6.567e+04   2.572e+03   2.568e+03  -1.700e-06  -1.091e-08   2.014e+02
  4.157e+04   2.922e+02   2.551e+02  -1.112e-06  -8.422e-09   2.015e+02
 -1.394e+03  -1.359e+03  -1.479e+03   1.581e-09  -3.707e-09   2.015e+02
 -4.077e+04   4.861e+02   2.551e+02   1.113e-06   1.008e-09   2.016e+02
 -6.010e+04   2.868e+03   2.568e+03   1.698e-06   3.495e-09   2.016e+02
Element     7
  5.773e+04   2.016e+03   1.998e+03  -1.546e-06  -8.313e-09   1.908e+02
  3.670e+04   2.359e+02   1.970e+02  -1.012e-06  -6.441e-09   1.909e+02
 -1.042e+03  -1.060e+03  -1.154e+03   3.952e-12  -2.891e-09   1.911e+02
 -3.599e+04   3.677e+02   1.970e+02   1.010e-06   6.583e-10   1.913e+02
 -5.330e+04   2.218e+03   1.998e+03   1.542e-06   2.531e-09   1.914e+02
Element     8
  5.027e+04   1.543e+03   1.527e+03  -1.400e-06  -8.051e-09   1.810e+02
  3.209e+04   1.826e+02   1.514e+02  -9.164e-07  -6.122e-09   1.811e+02
 -7.496e+02  -8.086e+02  -8.802e+02  -1.206e-09  -2.465e-09   1.812e+02
 -3.146e+04   2.798e+02   1.514e+02   9.126e-07   1.192e-09   1.812e+02
 -4.679e+04   1.692e+03   1.527e+03   1.394e-06   3.122e-09   1.813e+02
Element     9
  4.325e+04   1.153e+03   1.138e+03  -1.256e-06  -5.556e-09   1.717e+02
  2.772e+04   1.374e+02   1.124e+02  -8.229e-07  -4.308e-09   1.718e+02
 -5.086e+02  -6.031e+02  -6.565e+02  -2.314e-09  -1.941e-09   1.719e+02
 -2.715e+04   2.065e+02   1.124e+02   8.171e-07   4.255e-10   1.720e+02
 -4.056e+04   1.258e+03   1.138e+03   1.249e-06   1.674e-09   1.720e+02
Element    10
  3.664e+04   8.331e+02   8.218e+02  -1.112e-06  -6.757e-09   1.634e+02
  2.358e+04   9.988e+01   8.149e+01  -7.294e-07  -5.251e-09   1.634e+02
 -3.125e+02  -4.353e+02  -4.737e+02  -4.266e-09  -2.395e-09   1.635e+02
 -2.306e+04   1.488e+02   8.149e+01   7.200e-07   4.597e-10   1.635e+02
 -3.459e+04   9.078e+02   8.218e+02   1.102e-06   1.966e-09   1.636e+02
Element    11
  3.039e+04   5.760e+02   5.682e+02  -9.598e-07  -5.284e-09   1.561e+02
  1.963e+04   6.893e+01   5.624e+01  -6.298e-07  -4.069e-09   1.561e+02
 -1.554e+02  -3.011e+02  -3.277e+02  -4.519e-09  -1.767e-09   1.561e+02
 -1.915e+04   1.028e+02   5.624e+01   6.201e-07   5.352e-10   1.562e+02
 -2.885e+04   6.277e+02   5.682e+02   9.494e-07   1.750e-09   1.562e+02
Element    12
  2.445e+04   3.728e+02   3.694e+02  -7.978e-07  -2.628e-09   1.499e+02
  1.586e+04   4.384e+01   3.669e+01  -5.237e-07  -1.868e-09   1.499e+02
 -3.203e+01  -1.957e+02  -2.128e+02  -4.382e-09  -4.279e-10   1.499e+02
 -1.541e+04   6.783e+01   3.669e+01   5.145e-07   1.013e-09   1.500e+02
 -2.331e+04   4.095e+02   3.694e+02   7.881e-07   1.773e-09   1.500e+02
Element    13
  1.877e+04   2.219e+02   2.181e+02  -6.285e-07  -2.574e-09   1.449e+02
  1.223e+04   2.707e+01   2.169e+01  -4.133e-07  -1.854e-09   1.449e+02
  6.177e+01  -1.156e+02  -1.256e+02  -5.539e-09  -4.880e-10   1.449e+02
 -1.180e+04   3.875e+01   2.169e+01   4.020e-07   8.776e-10   1.449e+02
 -1.794e+04   2.398e+02   2.181e+02   6.168e-07   1.598e-09   1.450e+02
Element    14
  1.330e+04   9.460e+01   1.096e+02  -4.545e-07  -3.130e-09   1.411e+02
  8.710e+03   2.586e+00   1.099e+01  -2.997e-07  -2.640e-09   1.411e+02
  1.291e+02  -5.802e+01  -6.293e+01  -6.331e-09  -1.710e-09   1.411e+02
 -8.299e+03   3.039e+01   1.099e+01   2.869e-07  -7.800e-10   1.411e+02
 -1.268e+04   1.371e+02   1.096e+02   4.416e-07  -2.895e-10   1.411e+02
Element    15
  7.982e+03   1.042e+02   3.843e+01  -2.670e-07   5.009e-10   1.386e+02
  5.271e+03   4.744e+01   3.927e+00  -1.766e-07   5.012e-10   1.386e+02
  1.732e+02  -2.032e+01  -2.195e+01  -5.191e-09   5.016e-10   1.386e+02
 -4.871e+03  -3.591e+01   3.927e+00   1.661e-07   5.021e-10   1.386e+02
 -7.511e+03  -2.312e+01   3.843e+01   2.565e-07   5.023e-10   1.386e+02
Element    16
  2.776e+03  -3.263e+02   5.431e+00  -1.120e-07  -1.910e-10   1.373e+02
  1.883e+03  -2.165e+02   7.208e-01  -7.469e-08  -2.529e-10   1.373e+02
  1.938e+02  -2.855e+00  -2.812e+00  -3.936e-09  -3.704e-10   1.373e+02
 -1.488e+03   2.179e+02   7.208e-01   6.681e-08  -4.879e-10   1.373e+02
 -2.372e+03   3.372e+02   5.431e+00   1.041e-07  -5.499e-10   1.373e+02



TIME =   7.000e-01

Nodal Displacements

 Node          U1          U2          U3
    1   0.000e+00   0.000e+00   0.000e+00
    2   5.160e-03   3.355e-03   4.148e-02
    3  -5.594e-04   2.344e-03   1.664e-01
    4  -2.796e-02   2.250e-03   3.687e-01
    5  -8.258e-02   1.982e-03   6.371e-01
    6  -1.678e-01   1.766e-03   9.616e-01
    7  -2.849e-01   1.556e-03   1.333e+00
    8  -4.334e-01   1.360e-03   1.743e+00
    9  -6.119e-01   1.176e-03   2.185e+00
   10  -8.179e-01   1.004e-03   2.653e+00
   11  -1.049e+00   8.427e-04   3.140e+00
   12  -1.301e+00   6.897e-04   3.645e+00
   13  -1.571e+00   5.443e-04   4.161e+00
   14  -1.856e+00   4.041e-04   4.687e+00
   15  -2.152e+00   2.711e-04   5.219e+00
   16  -2.455e+00   1.280e-04   5.756e+00
   17  -2.762e+00   4.904e-05   6.294e+00
   18   0.000e+00   0.000e+00   0.000e+00
   19   5.160e-03  -3.355e-03   4.148e-02
   20  -5.594e-04  -2.344e-03   1.664e-01
   21  -2.796e-02  -2.250e-03   3.687e-01
   22  -8.258e-02  -1.982e-03   6.371e-01
   23  -1.678e-01  -1.766e-03   9.616e-01
   24  -2.849e-01  -1.556e-03   1.333e+00
   25  -4.334e-01  -1.360e-03   1.743e+00
   26  -6.119e-01  -1.176e-03   2.185e+00
   27  -8.179e-01  -1.004e-03   2.653e+00
   28  -1.049e+00  -8.427e-04   3.140e+00
   29  -1.301e+00  -6.897e-04   3.645e+00
   30  -1.571e+00  -5.443e-04   4.161e+00
   31  -1.856e+00  -4.041e-04   4.687e+00
   32  -2.152e+00  -2.711e-04   5.219e+00
   33  -2.455e+00  -1.280e-04   5.756e+00
   34  -2.762e+00  -4.904e-05   6.294e+00
   35   0.000e+00   0.000e+00   0.000e+00
   36  -7.882e-03  -3.394e-03   4.040e-02
   37  -2.690e-02  -2.367e-03   1.627e-01
   38  -6.556e-02  -2.269e-03   3.613e-01
   39  -1.299e-01  -1.994e-03   6.251e-01
   40  -2.234e-01  -1.773e-03   9.447e-01
   41  -3.473e-01  -1.558e-03   1.311e+00
   42  -5.014e-01  -1.359e-03   1.716e+00
   43  -6.844e-01  -1.173e-03   2.154e+00
   44  -8.941e-01  -9.987e-04   2.617e+00
   45  -1.128e+00  -8.351e-04   3.101e+00
   46  -1.382e+00  -6.807e-04   3.602e+00
   47  -1.654e+00  -5.342e-04   4.116e+00
   48  -1.941e+00  -3.933e-04   4.640e+00
   49  -2.237e+00  -2.596e-04   5.171e+00
   50  -2.541e+00  -1.163e-04   5.707e+00
   51  -2.848e+00  -3.716e-05   6.245e+00
   52   0.000e+00   0.000e+00   0.000e+00
   53  -7.882e-03   3.394e-03   4.040e-02
   54  -2.690e-02   2.367e-03   1.627e-01
   55  -6.556e-02   2.269e-03   3.613e-01
   56  -1.299e-01   1.994e-03   6.251e-01
   57  -2.234e-01   1.773e-03   9.447e-01
   58  -3.473e-01   1.558e-03   1.311e+00
   59  -5.014e-01   1.359e-03   1.716e+00
   60  -6.844e-01   1.173e-03   2.154e+00
   61  -8.941e-01   9.987e-04   2.617e+00
   62  -1.128e+00   8.351e-04   3.101e+00
   63  -1.382e+00   6.807e-04   3.602e+00
   64  -1.654e+00   5.342e-04   4.116e+00
   65  -1.941e+00   3.933e-04   4.640e+00
   66  -2.237e+00   2.596e-04   5.171e+00
   67  -2.541e+00   1.163e-04   5.707e+00
   68  -2.848e+00   3.716e-05   6.245e+00

Element Stress

        S11         S22         S33         S12         S23         S13
Element     1
  1.225e+05   2.958e+04   6.250e+03  -1.128e-07   1.268e-09   2.792e+02
  7.653e+04   1.590e+04   5.661e+02  -7.351e-08   1.572e-09   2.771e+02
 -3.825e+03  -3.493e+03  -3.697e+03   7.604e-10   2.149e-09   2.732e+02
 -7.534e+04  -1.433e+04   5.661e+02   7.470e-08   2.726e-09   2.693e+02
 -1.095e+05  -1.660e+04   6.250e+03   1.136e-07   3.031e-09   2.672e+02
Element     2
  1.138e+05   2.797e+03   7.863e+03  -2.026e-07  -5.874e-11   2.790e+02
  7.005e+04  -2.414e+03   8.036e+02  -1.321e-07   2.389e-10   2.790e+02
 -4.576e+03  -4.133e+03  -4.491e+03   1.148e-09   8.030e-10   2.789e+02
 -6.827e+04   4.832e+03   8.036e+02   1.340e-07   1.367e-09   2.789e+02
 -9.747e+04   1.387e+04   7.863e+03   2.039e-07   1.665e-09   2.789e+02
Element     3
  1.015e+05   6.745e+03   5.815e+03  -1.592e-07  -2.428e-09   2.649e+02
  6.313e+04   1.253e+03   5.652e+02  -1.039e-07  -2.167e-09   2.654e+02
 -3.376e+03  -3.096e+03  -3.372e+03   6.305e-10  -1.671e-09   2.662e+02
 -6.175e+04   4.907e+02   5.652e+02   1.048e-07  -1.175e-09   2.671e+02
 -8.927e+04   5.580e+03   5.815e+03   1.597e-07  -9.134e-10   2.675e+02
Element     4
  9.066e+04   4.534e+03   4.790e+03  -1.233e-07  -1.535e-09   2.547e+02
  5.665e+04   3.745e+02   4.787e+02  -8.054e-08  -1.234e-09   2.546e+02
 -2.723e+03  -2.532e+03  -2.755e+03   3.389e-10  -6.640e-10   2.545e+02
 -5.542e+04   1.081e+03   4.787e+02   8.099e-08  -9.394e-11   2.544e+02
 -8.053e+04   5.613e+03   4.790e+03   1.235e-07   2.068e-10   2.543e+02
Element     5
  8.034e+04   3.803e+03   3.776e+03  -9.744e-08  -1.055e-09   2.401e+02
  5.048e+04   4.398e+02   3.709e+02  -6.368e-08  -8.626e-10   2.403e+02
 -2.101e+03  -2.004e+03  -2.183e+03   1.988e-10  -4.975e-10   2.408e+02
 -4.941e+04   6.988e+02   3.709e+02   6.392e-08  -1.323e-10   2.412e+02
 -7.224e+04   4.199e+03   3.776e+03   9.747e-08   6.029e-11   2.414e+02
Element     6
  7.074e+04   2.952e+03   2.961e+03  -7.451e-08  -1.137e-09   2.265e+02
  4.467e+04   3.278e+02   2.944e+02  -4.873e-08  -8.665e-10   2.266e+02
 -1.594e+03  -1.567e+03  -1.706e+03   6.003e-11  -3.533e-10   2.266e+02
 -4.372e+04   5.697e+02   2.944e+02   4.874e-08   1.600e-10   2.267e+02
 -6.428e+04   3.322e+03   2.961e+03   7.438e-08   4.308e-10   2.267e+02
Element     7
  6.180e+04   2.288e+03   2.278e+03  -5.640e-08  -7.218e-10   2.123e+02
  3.922e+04   2.620e+02   2.246e+02  -3.681e-08  -5.371e-10   2.124e+02
 -1.172e+03  -1.208e+03  -1.315e+03   2.623e-10  -1.868e-10   2.126e+02
 -3.838e+04   4.259e+02   2.246e+02   3.726e-08   1.635e-10   2.128e+02
 -5.672e+04   2.539e+03   2.278e+03   5.675e-08   3.482e-10   2.130e+02
Element     8
  5.351e+04   1.733e+03   1.722e+03  -4.266e-08  -6.998e-10   1.992e+02
  3.411e+04   2.009e+02   1.709e+02  -2.788e-08  -4.857e-10   1.993e+02
 -8.264e+02  -9.121e+02  -9.927e+02   1.202e-10  -7.992e-11   1.993e+02
 -3.336e+04   3.206e+02   1.709e+02   2.807e-08   3.259e-10   1.994e+02
 -4.955e+04   1.916e+03   1.722e+03   4.279e-08   5.399e-10   1.995e+02
Element     9
  4.580e+04   1.281e+03   1.271e+03  -3.223e-08  -3.946e-10   1.869e+02
  2.933e+04   1.496e+02   1.256e+02  -2.105e-08  -2.002e-10   1.870e+02
 -5.468e+02  -6.736e+02  -7.332e+02   1.323e-10   1.682e-10   1.871e+02
 -2.865e+04   2.343e+02   1.256e+02   2.128e-08   5.367e-10   1.872e+02
 -4.276e+04   1.411e+03   1.271e+03   3.242e-08   7.311e-10   1.873e+02
Element    10
  3.863e+04   9.179e+02   9.097e+02  -2.403e-08  -1.384e-09   1.760e+02
  2.484e+04   1.077e+02   9.025e+01  -1.570e-08  -1.075e-09   1.761e+02
 -3.228e+02  -4.818e+02  -5.243e+02   7.304e-11  -4.893e-10   1.761e+02
 -2.422e+04   1.675e+02   9.025e+01   1.583e-08   9.642e-11   1.762e+02
 -3.631e+04   1.009e+03   9.097e+02   2.413e-08   4.054e-10   1.762e+02
Element    11
  3.191e+04   6.293e+02   6.240e+02  -1.746e-08  -2.380e-10   1.665e+02
  2.061e+04   7.352e+01   6.179e+01  -1.149e-08  -2.405e-10   1.665e+02
 -1.458e+02  -3.307e+02  -3.599e+02  -1.838e-10  -2.451e-10   1.666e+02
 -2.003e+04   1.150e+02   6.179e+01   1.111e-08  -2.498e-10   1.666e+02
 -3.017e+04   6.927e+02   6.240e+02   1.707e-08  -2.522e-10   1.667e+02
Element    12
  2.559e+04   4.043e+02   4.030e+02  -1.373e-08  -1.120e-09   1.585e+02
  1.660e+04   4.621e+01   4.006e+01  -9.371e-09  -1.187e-09   1.585e+02
 -8.636e+00  -2.135e+02  -2.322e+02  -1.111e-09  -1.314e-09   1.586e+02
 -1.606e+04   7.562e+01   4.006e+01   7.143e-09  -1.441e-09   1.586e+02
 -2.430e+04   4.492e+02   4.030e+02   1.149e-08  -1.508e-09   1.586e+02
Element    13
  1.960e+04   2.388e+02   2.367e+02  -1.136e-08  -1.038e-09   1.521e+02
  1.277e+04   2.807e+01   2.354e+01  -8.391e-09  -1.146e-09   1.521e+02
  9.449e+01  -1.254e+02  -1.363e+02  -2.768e-09  -1.350e-09   1.521e+02
 -1.226e+04   4.334e+01   2.354e+01   2.852e-09  -1.554e-09   1.522e+02
 -1.864e+04   2.622e+02   2.367e+02   5.815e-09  -1.662e-09   1.522e+02
Element    14
  1.386e+04   1.016e+02   1.184e+02  -8.865e-09  -1.269e-09   1.472e+02
  9.090e+03   2.357e+00   1.189e+01  -6.561e-09  -1.160e-09   1.473e+02
  1.679e+02  -6.271e+01  -6.800e+01  -2.197e-09  -9.548e-10   1.473e+02
 -8.590e+03   3.328e+01   1.189e+01   2.164e-09  -7.493e-10   1.473e+02
 -1.314e+04   1.488e+02   1.184e+02   4.464e-09  -6.409e-10   1.473e+02
Element    15
  8.324e+03   1.088e+02   4.142e+01  -4.466e-09   2.778e-10   1.440e+02
  5.508e+03   4.883e+01   4.233e+00  -3.328e-09   1.507e-10   1.440e+02
  2.155e+02  -2.190e+01  -2.366e+01  -1.171e-09  -9.036e-11   1.440e+02
 -5.020e+03  -3.641e+01   4.233e+00   9.859e-10  -3.314e-10   1.441e+02
 -7.758e+03  -2.141e+01   4.142e+01   2.123e-09  -4.586e-10   1.441e+02
Element    16
  2.917e+03  -3.385e+02   5.845e+00  -1.223e-09   2.146e-09   1.424e+02
  1.990e+03  -2.247e+02   7.760e-01  -9.863e-10   1.615e-09   1.424e+02
  2.378e+02  -3.072e+00  -3.026e+00  -5.367e-10   6.080e-10   1.424e+02
 -1.506e+03   2.262e+02   7.760e-01  -8.707e-11  -3.989e-10   1.424e+02
 -2.423e+03   3.502e+02   5.845e+00   1.501e-10  -9.301e-10   1.424e+02



TIME =   8.000e-01

Nodal Displacements

 Node          U1          U2          U3
    1   0.000e+00   0.000e+00   0.000e+00
    2   5.471e-03   3.644e-03   4.509e-02
    3  -1.905e-03   2.526e-03   1.805e-01
    4  -3.452e-02   2.413e-03   3.989e-01
    5  -9.852e-02   2.112e-03   6.872e-01
    6  -1.975e-01   1.870e-03   1.034e+00
    7  -3.323e-01   1.638e-03   1.429e+00
    8  -5.022e-01   1.424e-03   1.863e+00
    9  -7.051e-01   1.226e-03   2.328e+00
   10  -9.382e-01   1.042e-03   2.819e+00
   11  -1.198e+00   8.705e-04   3.329e+00
   12  -1.481e+00   7.101e-04   3.855e+00
   13  -1.784e+00   5.589e-04   4.392e+00
   14  -2.101e+00   4.143e-04   4.938e+00
   15  -2.431e+00   2.777e-04   5.490e+00
   16  -2.768e+00   1.316e-04   6.045e+00
   17  -3.110e+00   5.096e-05   6.602e+00
   18   0.000e+00   0.000e+00   0.000e+00
   19   5.471e-03  -3.644e-03   4.509e-02
   20  -1.905e-03  -2.526e-03   1.805e-01
   21  -3.452e-02  -2.413e-03   3.989e-01
   22  -9.852e-02  -2.112e-03   6.872e-01
   23  -1.975e-01  -1.870e-03   1.034e+00
   24  -3.323e-01  -1.638e-03   1.429e+00
   25  -5.022e-01  -1.424e-03   1.863e+00
   26  -7.051e-01  -1.226e-03   2.328e+00
   27  -9.382e-01  -1.042e-03   2.819e+00
   28  -1.198e+00  -8.705e-04   3.329e+00
   29  -1.481e+00  -7.101e-04   3.855e+00
   30  -1.784e+00  -5.589e-04   4.392e+00
   31  -2.101e+00  -4.143e-04   4.938e+00
   32  -2.431e+00  -2.777e-04   5.490e+00
   33  -2.768e+00  -1.316e-04   6.045e+00
   34  -3.110e+00  -5.096e-05   6.602e+00
   35   0.000e+00   0.000e+00   0.000e+00
   36  -8.681e-03  -3.690e-03   4.381e-02
   37  -3.039e-02  -2.552e-03   1.762e-01
   38  -7.499e-02  -2.434e-03   3.903e-01
   39  -1.492e-01  -2.124e-03   6.733e-01
   40  -2.566e-01  -1.877e-03   1.014e+00
   41  -3.984e-01  -1.640e-03   1.404e+00
   42  -5.739e-01  -1.422e-03   1.832e+00
   43  -7.814e-01  -1.221e-03   2.293e+00
   44  -1.018e+00  -1.034e-03   2.779e+00
   45  -1.281e+00  -8.610e-04   3.285e+00
   46  -1.566e+00  -6.991e-04   3.808e+00
   47  -1.870e+00  -5.467e-04   4.342e+00
   48  -2.189e+00  -4.013e-04   4.886e+00
   49  -2.520e+00  -2.641e-04   5.436e+00
   50  -2.857e+00  -1.177e-04   5.991e+00
   51  -3.199e+00  -3.692e-05   6.547e+00
   52   0.000e+00   0.000e+00   0.000e+00
   53  -8.681e-03   3.690e-03   4.381e-02
   54  -3.039e-02   2.552e-03   1.762e-01
   55  -7.499e-02   2.434e-03   3.903e-01
   56  -1.492e-01   2.124e-03   6.733e-01
   57  -2.566e-01   1.877e-03   1.014e+00
   58  -3.984e-01   1.640e-03   1.404e+00
   59  -5.739e-01   1.422e-03   1.832e+00
   60  -7.814e-01   1.221e-03   2.293e+00
   61  -1.018e+00   1.034e-03   2.779e+00
   62  -1.281e+00   8.610e-04   3.285e+00
   63  -1.566e+00   6.991e-04   3.808e+00
   64  -1.870e+00   5.467e-04   4.342e+00
   65  -2.189e+00   4.013e-04   4.886e+00
   66  -2.520e+00   2.641e-04   5.436e+00
   67  -2.857e+00   1.177e-04   5.991e+00
   68  -3.199e+00   3.692e-05   6.547e+00

Element Stress

        S11         S22         S33         S12         S23         S13
Element     1
  1.336e+05   3.268e+04   7.370e+03  -3.907e-07   4.008e-09   3.184e+02
  8.313e+04   1.731e+04   6.675e+02  -2.545e-07   5.193e-09   3.159e+02
 -4.508e+03  -4.119e+03  -4.359e+03   2.857e-09   7.438e-09   3.113e+02
 -8.172e+04  -1.545e+04   6.675e+02   2.589e-07   9.683e-09   3.067e+02
 -1.183e+05  -1.737e+04   7.370e+03   3.935e-07   1.087e-08   3.042e+02
Element     2
  1.237e+05   3.596e+03   9.196e+03  -7.021e-07  -5.570e-10   3.184e+02
  7.575e+04  -2.611e+03   9.403e+02  -4.577e-07   6.160e-10   3.184e+02
 -5.346e+03  -4.833e+03  -5.251e+03   4.256e-09   2.840e-09   3.184e+02
 -7.366e+04   5.439e+03   9.403e+02   4.646e-07   5.063e-09   3.184e+02
 -1.046e+05   1.589e+04   9.196e+03   7.068e-07   6.236e-09   3.184e+02
Element     3
  1.095e+05   7.683e+03   6.712e+03  -5.520e-07  -8.286e-09   3.001e+02
  6.786e+04   1.379e+03   6.525e+02  -3.602e-07  -7.367e-09   3.006e+02
 -3.890e+03  -3.574e+03  -3.892e+03   2.414e-09  -5.624e-09   3.016e+02
 -6.625e+04   6.324e+02   6.525e+02   3.639e-07  -3.880e-09   3.026e+02
 -9.537e+04   6.542e+03   6.712e+03   5.540e-07  -2.961e-09   3.031e+02
Element     4
  9.718e+04   5.155e+03   5.465e+03  -4.264e-07  -4.823e-09   2.863e+02
  6.054e+04   4.154e+02   5.465e+02  -2.785e-07  -3.909e-09   2.862e+02
 -3.096e+03  -2.889e+03  -3.143e+03   1.286e-09  -2.177e-09   2.861e+02
 -5.911e+04   1.245e+03   5.465e+02   2.803e-07  -4.448e-10   2.860e+02
 -8.559e+04   6.422e+03   5.465e+03   4.271e-07   4.691e-10   2.859e+02
Element     5
  8.555e+04   4.266e+03   4.255e+03  -3.339e-07  -4.070e-09   2.674e+02
  5.362e+04   4.818e+02   4.181e+02  -2.184e-07  -3.427e-09   2.677e+02
 -2.355e+03  -2.259e+03  -2.460e+03   3.289e-10  -2.207e-09   2.682e+02
 -5.239e+04   8.011e+02   4.181e+02   2.184e-07  -9.873e-10   2.687e+02
 -7.638e+04   4.753e+03   4.255e+03   3.333e-07  -3.438e-10   2.690e+02
Element     6
  7.484e+04   3.275e+03   3.299e+03  -2.517e-07  -3.881e-09   2.498e+02
  4.718e+04   3.562e+02   3.282e+02  -1.647e-07  -3.067e-09   2.499e+02
 -1.758e+03  -1.746e+03  -1.900e+03   3.626e-11  -1.524e-09   2.499e+02
 -4.609e+04   6.436e+02   3.282e+02   1.644e-07   1.846e-11   2.500e+02
 -6.762e+04   3.714e+03   3.299e+03   2.509e-07   8.323e-10   2.500e+02
Element     7
  6.500e+04   2.510e+03   2.508e+03  -1.888e-07  -2.557e-09   2.317e+02
  4.119e+04   2.819e+02   2.474e+02  -1.237e-07  -1.998e-09   2.318e+02
 -1.271e+03  -1.331e+03  -1.448e+03  -4.663e-10  -9.387e-10   2.321e+02
 -4.023e+04   4.755e+02   2.474e+02   1.225e-07   1.205e-10   2.323e+02
 -5.937e+04   2.806e+03   2.508e+03   1.873e-07   6.792e-10   2.325e+02
Element     8
  5.596e+04   1.881e+03   1.877e+03  -1.410e-07  -2.061e-09   2.152e+02
  3.564e+04   2.141e+02   1.864e+02  -9.263e-08  -1.626e-09   2.152e+02
 -8.781e+02  -9.939e+02  -1.082e+03  -9.719e-10  -8.010e-10   2.153e+02
 -3.478e+04   3.542e+02   1.864e+02   9.053e-08   2.391e-11   2.154e+02
 -5.161e+04   2.095e+03   1.877e+03   1.387e-07   4.591e-10   2.154e+02
Element     9
  4.766e+04   1.377e+03   1.371e+03  -1.055e-07  -2.030e-09   1.998e+02
  3.050e+04   1.578e+02   1.355e+02  -6.941e-08  -1.562e-09   1.998e+02
 -5.650e+02  -7.269e+02  -7.911e+02  -1.080e-09  -6.742e-10   2.000e+02
 -2.972e+04   2.564e+02   1.355e+02   6.715e-08   2.136e-10   2.001e+02
 -4.432e+04   1.528e+03   1.371e+03   1.031e-07   6.819e-10   2.002e+02
Element    10
  4.001e+04   9.774e+02   9.730e+02  -8.084e-08  -2.779e-09   1.863e+02
  2.573e+04   1.124e+02   9.659e+01  -5.367e-08  -2.143e-09   1.863e+02
 -3.179e+02  -5.153e+02  -5.607e+02  -2.229e-09  -9.371e-10   1.864e+02
 -2.500e+04   1.820e+02   9.659e+01   4.915e-08   2.689e-10   1.864e+02
 -3.748e+04   1.084e+03   9.730e+02   7.622e-08   9.051e-10   1.865e+02
Element    11
  3.293e+04   6.644e+02   6.623e+02  -6.005e-08  -2.689e-09   1.745e+02
  2.127e+04   7.580e+01   6.559e+01  -3.983e-08  -1.917e-09   1.745e+02
 -1.254e+02  -3.510e+02  -3.819e+02  -1.540e-09  -4.540e-10   1.746e+02
 -2.059e+04   1.243e+02   6.559e+01   3.671e-08   1.009e-09   1.747e+02
 -3.102e+04   7.384e+02   6.623e+02   5.687e-08   1.781e-09   1.747e+02
Element    12
  2.632e+04   4.236e+02   4.249e+02  -4.430e-08  -2.735e-09   1.647e+02
  1.708e+04   4.702e+01   4.225e+01  -2.956e-08  -2.092e-09   1.648e+02
  2.190e+01  -2.250e+02  -2.447e+02  -1.630e-09  -8.737e-10   1.648e+02
 -1.645e+04   8.141e+01   4.225e+01   2.628e-08   3.447e-10   1.648e+02
 -2.489e+04   4.762e+02   4.249e+02   4.099e-08   9.875e-10   1.649e+02
Element    13
  2.011e+04   2.484e+02   2.482e+02  -3.052e-08  -1.493e-09   1.569e+02
  1.312e+04   2.809e+01   2.469e+01  -2.048e-08  -1.324e-09   1.569e+02
  1.314e+02  -1.315e+02  -1.429e+02  -1.453e-09  -1.003e-09   1.570e+02
 -1.251e+04   4.678e+01   2.469e+01   1.756e-08  -6.822e-10   1.570e+02
 -1.904e+04   2.769e+02   2.482e+02   2.759e-08  -5.129e-10   1.570e+02
Element    14
  1.421e+04   1.051e+02   1.237e+02  -1.733e-08  -9.123e-10   1.511e+02
  9.328e+03   1.801e+00   1.242e+01  -1.155e-08  -6.788e-10   1.511e+02
  2.087e+02  -6.548e+01  -7.101e+01  -5.838e-10  -2.361e-10   1.511e+02
 -8.738e+03   3.542e+01   1.242e+01   1.038e-08   2.065e-10   1.511e+02
 -1.339e+04   1.564e+02   1.237e+02   1.616e-08   4.401e-10   1.511e+02
Element    15
  8.534e+03   1.109e+02   4.314e+01  -9.876e-09  -3.086e-10   1.472e+02
  5.660e+03   4.931e+01   4.409e+00  -6.977e-09  -1.116e-10   1.472e+02
  2.586e+02  -2.281e+01  -2.464e+01  -1.482e-09   2.619e-10   1.472e+02
 -5.083e+03  -3.637e+01   4.409e+00   4.013e-09   6.355e-10   1.472e+02
 -7.877e+03  -1.994e+01   4.314e+01   6.911e-09   8.325e-10   1.472e+02
Element    16
  3.014e+03  -3.452e+02   6.079e+00  -3.991e-09   1.069e-09   1.452e+02
  2.068e+03  -2.292e+02   8.074e-01  -3.218e-09   8.799e-10   1.452e+02
  2.817e+02  -3.195e+00  -3.146e+00  -1.754e-09   5.222e-10   1.452e+02
 -1.497e+03   2.308e+02   8.074e-01  -2.898e-10   1.646e-10   1.452e+02
 -2.431e+03   3.575e+02   6.079e+00   4.827e-10  -2.408e-11   1.452e+02



TIME =   9.000e-01

Nodal Displacements

 Node          U1          U2          U3
    1   0.000e+00   0.000e+00   0.000e+00
    2   5.737e-03   3.910e-03   4.840e-02
    3  -3.309e-03   2.688e-03   1.934e-01
    4  -4.104e-02   2.554e-03   4.263e-01
    5  -1.141e-01   2.222e-03   7.321e-01
    6  -2.260e-01   1.956e-03   1.098e+00
    7  -3.773e-01   1.703e-03   1.513e+00
    8  -5.670e-01   1.473e-03   1.967e+00
    9  -7.922e-01   1.262e-03   2.452e+00
   10  -1.050e+00   1.067e-03   2.961e+00
   11  -1.336e+00   8.886e-04   3.489e+00
   12  -1.646e+00   7.225e-04   4.032e+00
   13  -1.977e+00   5.671e-04   4.585e+00
   14  -2.323e+00   4.197e-04   5.146e+00
   15  -2.682e+00   2.812e-04   5.712e+00
   16  -3.049e+00   1.336e-04   6.282e+00
   17  -3.420e+00   5.235e-05   6.853e+00
   18   0.000e+00   0.000e+00   0.000e+00
   19   5.737e-03  -3.910e-03   4.840e-02
   20  -3.309e-03  -2.688e-03   1.934e-01
   21  -4.104e-02  -2.554e-03   4.263e-01
   22  -1.141e-01  -2.222e-03   7.321e-01
   23  -2.260e-01  -1.956e-03   1.098e+00
   24  -3.773e-01  -1.703e-03   1.513e+00
   25  -5.670e-01  -1.473e-03   1.967e+00
   26  -7.922e-01  -1.262e-03   2.452e+00
   27  -1.050e+00  -1.067e-03   2.961e+00
   28  -1.336e+00  -8.886e-04   3.489e+00
   29  -1.646e+00  -7.225e-04   4.032e+00
   30  -1.977e+00  -5.671e-04   4.585e+00
   31  -2.323e+00  -4.197e-04   5.146e+00
   32  -2.682e+00  -2.812e-04   5.712e+00
   33  -3.049e+00  -1.336e-04   6.282e+00
   34  -3.420e+00  -5.235e-05   6.853e+00
   35   0.000e+00   0.000e+00   0.000e+00
   36  -9.428e-03  -3.962e-03   4.693e-02
   37  -3.373e-02  -2.717e-03   1.885e-01
   38  -8.405e-02  -2.578e-03   4.164e-01
   39  -1.677e-01  -2.235e-03   7.164e-01
   40  -2.882e-01  -1.963e-03   1.076e+00
   41  -4.466e-01  -1.704e-03   1.485e+00
   42  -6.418e-01  -1.470e-03   1.933e+00
   43  -8.715e-01  -1.255e-03   2.413e+00
   44  -1.132e+00  -1.058e-03   2.917e+00
   45  -1.421e+00  -8.771e-04   3.441e+00
   46  -1.733e+00  -7.094e-04   3.980e+00
   47  -2.066e+00  -5.529e-04   4.530e+00
   48  -2.413e+00  -4.045e-04   5.089e+00
   49  -2.773e+00  -2.654e-04   5.654e+00
   50  -3.140e+00  -1.176e-04   6.223e+00
   51  -3.511e+00  -3.617e-05   6.794e+00
   52   0.000e+00   0.000e+00   0.000e+00
   53  -9.428e-03   3.962e-03   4.693e-02
   54  -3.373e-02   2.717e-03   1.885e-01
   55  -8.405e-02   2.578e-03   4.164e-01
   56  -1.677e-01   2.235e-03   7.164e-01
   57  -2.882e-01   1.963e-03   1.076e+00
   58  -4.466e-01   1.704e-03   1.485e+00
   59  -6.418e-01   1.470e-03   1.933e+00
   60  -8.715e-01   1.255e-03   2.413e+00
   61  -1.132e+00   1.058e-03   2.917e+00
   62  -1.421e+00   8.771e-04   3.441e+00
   63  -1.733e+00   7.094e-04   3.980e+00
   64  -2.066e+00   5.529e-04   4.530e+00
   65  -2.413e+00   4.045e-04   5.089e+00
   66  -2.773e+00   2.654e-04   5.654e+00
   67  -3.140e+00   1.176e-04   6.223e+00
   68  -3.511e+00   3.617e-05   6.794e+00

Element Stress

        S11         S22         S33         S12         S23         S13
Element     1
  1.438e+05   3.558e+04   8.475e+03  -4.198e-06   3.767e-08   3.574e+02
  8.918e+04   1.860e+04   7.675e+02  -2.733e-06   5.221e-08   3.546e+02
 -5.183e+03  -4.737e+03  -5.013e+03   3.322e-08   7.978e-08   3.493e+02
 -8.755e+04  -1.647e+04   7.675e+02   2.785e-06   1.073e-07   3.439e+02
 -1.262e+05  -1.798e+04   8.475e+03   4.231e-06   1.219e-07   3.411e+02
Element     2
  1.326e+05   4.377e+03   1.049e+04  -7.617e-06  -5.993e-09   3.577e+02
  8.089e+04  -2.797e+03   1.073e+03  -4.965e-06   8.956e-09   3.577e+02
 -6.093e+03  -5.512e+03  -5.989e+03   4.806e-08   3.729e-08   3.577e+02
 -7.850e+04   6.023e+03   1.073e+03   5.043e-06   6.563e-08   3.578e+02
 -1.108e+05   1.785e+04   1.049e+04   7.670e-06   8.058e-08   3.578e+02
Element     3
  1.166e+05   8.558e+03   7.557e+03  -6.426e-06  -8.070e-08   3.346e+02
  7.204e+04   1.493e+03   7.347e+02  -4.192e-06  -6.886e-08   3.352e+02
 -4.371e+03  -4.025e+03  -4.382e+03   3.036e-08  -4.640e-08   3.364e+02
 -7.021e+04   7.714e+02   7.347e+02   4.238e-06  -2.395e-08   3.375e+02
 -1.007e+05   7.457e+03   7.557e+03   6.452e-06  -1.211e-08   3.381e+02
Element     4
  1.028e+05   5.717e+03   6.083e+03  -5.535e-06  -5.269e-08   3.169e+02
  6.389e+04   4.492e+02   6.088e+02  -3.615e-06  -3.990e-08   3.168e+02
 -3.434e+03  -3.215e+03  -3.497e+03   1.741e-08  -1.566e-08   3.167e+02
 -6.228e+04   1.399e+03   6.088e+02   3.638e-06   8.579e-09   3.166e+02
 -8.990e+04   7.168e+03   6.083e+03   5.544e-06   2.137e-08   3.165e+02
Element     5
  8.993e+04   4.670e+03   4.679e+03  -4.761e-06  -5.055e-08   2.934e+02
  5.626e+04   5.167e+02   4.598e+02  -3.112e-06  -4.047e-08   2.937e+02
 -2.574e+03  -2.485e+03  -2.705e+03   6.758e-09  -2.138e-08   2.943e+02
 -5.487e+04   8.936e+02   4.598e+02   3.117e-06  -2.277e-09   2.949e+02
 -7.982e+04   5.246e+03   4.679e+03   4.754e-06   7.798e-09   2.952e+02
Element     6
  7.819e+04   3.546e+03   3.586e+03  -4.013e-06  -4.876e-08   2.715e+02
  4.921e+04   3.785e+02   3.569e+02  -2.626e-06  -3.813e-08   2.716e+02
 -1.892e+03  -1.897e+03  -2.065e+03  -1.928e-09  -1.797e-08   2.716e+02
 -4.800e+04   7.082e+02   3.569e+02   2.616e-06   2.196e-09   2.717e+02
 -7.030e+04   4.050e+03   3.586e+03   3.994e-06   1.283e-08   2.718e+02
Element     7
  6.750e+04   2.688e+03   2.696e+03  -3.368e-06  -3.961e-08   2.493e+02
  4.273e+04   2.966e+02   2.659e+02  -2.206e-06  -3.114e-08   2.495e+02
 -1.343e+03  -1.430e+03  -1.557e+03  -7.979e-09  -1.507e-08   2.498e+02
 -4.165e+04   5.172e+02   2.659e+02   2.186e-06   9.869e-10   2.501e+02
 -6.140e+04   3.025e+03   2.696e+03   3.341e-06   9.460e-09   2.502e+02
Element     8
  5.780e+04   1.994e+03   1.996e+03  -2.806e-06  -3.717e-08   2.292e+02
  3.679e+04   2.230e+02   1.983e+02  -1.840e-06  -2.872e-08   2.293e+02
 -9.081e+02  -1.057e+03  -1.150e+03  -1.289e-08  -1.271e-08   2.294e+02
 -3.582e+04   3.814e+02   1.983e+02   1.811e-06   3.311e-09   2.295e+02
 -5.312e+04   2.235e+03   1.996e+03   2.772e-06   1.176e-08   2.295e+02
Element     9
  4.898e+04   1.445e+03   1.444e+03  -2.313e-06  -3.072e-08   2.107e+02
  3.134e+04   1.625e+02   1.427e+02  -1.519e-06  -2.394e-08   2.108e+02
 -5.665e+02  -7.656e+02  -8.332e+02  -1.637e-08  -1.109e-08   2.109e+02
 -3.045e+04   2.736e+02   1.427e+02   1.484e-06   1.765e-09   2.111e+02
 -4.541e+04   1.615e+03   1.444e+03   2.275e-06   8.546e-09   2.112e+02
Element    10
  4.094e+04   1.016e+03   1.016e+03  -1.880e-06  -2.963e-08   1.946e+02
  2.632e+04   1.145e+02   1.009e+02  -1.237e-06  -2.296e-08   1.946e+02
 -3.007e+02  -5.380e+02  -5.854e+02  -2.032e-08  -1.030e-08   1.947e+02
 -2.551e+04   1.928e+02   1.009e+02   1.195e-06   2.347e-09   1.948e+02
 -3.823e+04   1.136e+03   1.016e+03   1.836e-06   9.022e-09   1.948e+02
Element    11
  3.356e+04   6.849e+02   6.862e+02  -1.488e-06  -2.306e-08   1.807e+02
  2.169e+04   7.627e+01   6.797e+01  -9.818e-07  -1.787e-08   1.807e+02
 -9.642e+01  -3.637e+02  -3.957e+02  -2.240e-08  -8.020e-09   1.808e+02
 -2.092e+04   1.310e+02   6.797e+01   9.360e-07   1.829e-09   1.808e+02
 -3.152e+04   7.685e+02   6.862e+02   1.441e-06   7.025e-09   1.809e+02
Element    12
  2.675e+04   4.334e+02   4.374e+02  -1.132e-06  -1.822e-08   1.691e+02
  1.737e+04   4.664e+01   4.351e+01  -7.488e-07  -1.394e-08   1.692e+02
  5.795e+01  -2.316e+02  -2.519e+02  -2.224e-08  -5.831e-09   1.692e+02
 -1.664e+04   8.555e+01   4.351e+01   7.037e-07   2.278e-09   1.693e+02
 -2.521e+04   4.928e+02   4.374e+02   1.086e-06   6.556e-09   1.693e+02
Element    13
  2.039e+04   2.522e+02   2.541e+02  -8.132e-07  -1.380e-08   1.600e+02
  1.331e+04   2.738e+01   2.528e+01  -5.409e-07  -1.081e-08   1.600e+02
  1.716e+02  -1.346e+02  -1.463e+02  -2.494e-08  -5.133e-09   1.600e+02
 -1.262e+04   4.926e+01   2.528e+01   4.907e-07   5.420e-10   1.601e+02
 -1.922e+04   2.856e+02   2.541e+02   7.625e-07   3.536e-09   1.601e+02
Element    14
  1.439e+04   1.059e+02   1.261e+02  -5.327e-07  -1.259e-08   1.531e+02
  9.459e+03   1.011e+00   1.267e+01  -3.577e-07  -9.779e-09   1.531e+02
  2.510e+02  -6.677e+01  -7.240e+01  -2.606e-08  -4.451e-09   1.532e+02
 -8.782e+03   3.694e+01   1.267e+01   3.054e-07   8.774e-10   1.532e+02
 -1.348e+04   1.607e+02   1.261e+02   4.802e-07   3.688e-09   1.532e+02
Element    15
  8.646e+03   1.113e+02   4.387e+01  -2.902e-07  -5.797e-09   1.486e+02
  5.749e+03   4.912e+01   4.484e+00  -1.989e-07  -4.419e-09   1.486e+02
  3.019e+02  -2.319e+01  -2.505e+01  -2.594e-08  -1.806e-09   1.486e+02
 -5.084e+03  -3.598e+01   4.484e+00   1.470e-07   8.063e-10   1.486e+02
 -7.900e+03  -1.873e+01   4.387e+01   2.382e-07   2.184e-09   1.486e+02
Element    16
  3.079e+03  -3.480e+02   6.173e+00  -1.213e-07  -2.174e-09   1.463e+02
  2.126e+03  -2.311e+02   8.203e-01  -8.739e-08  -2.068e-09   1.463e+02
  3.254e+02  -3.244e+00  -3.194e+00  -2.318e-08  -1.868e-09   1.463e+02
 -1.466e+03   2.327e+02   8.203e-01   4.103e-08  -1.668e-09   1.463e+02
 -2.408e+03   3.604e+02   6.173e+00   7.490e-08  -1.562e-09   1.463e+02



TIME =   1.000e+00

Nodal Displacements

 Node          U1          U2          U3
    1   0.000e+00   0.000e+00   0.000e+00
    2   5.966e-03   4.156e-03   5.146e-02
    3  -4.753e-03   2.833e-03   2.052e-01
    4  -4.747e-02   2.680e-03   4.512e-01
    5  -1.292e-01   2.316e-03   7.727e-01
    6  -2.533e-01   2.027e-03   1.156e+00
    7  -4.202e-01   1.755e-03   1.588e+00
    8  -6.280e-01   1.510e-03   2.059e+00
    9  -8.736e-01   1.287e-03   2.560e+00
   10  -1.153e+00   1.084e-03   3.084e+00
   11  -1.462e+00   8.991e-04   3.627e+00
   12  -1.797e+00   7.287e-04   4.182e+00
   13  -2.152e+00   5.706e-04   4.748e+00
   14  -2.524e+00   4.215e-04   5.321e+00
   15  -2.908e+00   2.823e-04   5.899e+00
   16  -3.301e+00   1.346e-04   6.479e+00
   17  -3.697e+00   5.336e-05   7.061e+00
   18   0.000e+00   0.000e+00   0.000e+00
   19   5.966e-03  -4.156e-03   5.146e-02
   20  -4.753e-03  -2.833e-03   2.052e-01
   21  -4.747e-02  -2.680e-03   4.512e-01
   22  -1.292e-01  -2.316e-03   7.727e-01
   23  -2.533e-01  -2.027e-03   1.156e+00
   24  -4.202e-01  -1.755e-03   1.588e+00
   25  -6.280e-01  -1.510e-03   2.059e+00
   26  -8.736e-01  -1.287e-03   2.560e+00
   27  -1.153e+00  -1.084e-03   3.084e+00
   28  -1.462e+00  -8.991e-04   3.627e+00
   29  -1.797e+00  -7.287e-04   4.182e+00
   30  -2.152e+00  -5.706e-04   4.748e+00
   31  -2.524e+00  -4.215e-04   5.321e+00
   32  -2.908e+00  -2.823e-04   5.899e+00
   33  -3.301e+00  -1.346e-04   6.479e+00
   34  -3.697e+00  -5.336e-05   7.061e+00
   35   0.000e+00   0.000e+00   0.000e+00
   36  -1.013e-02  -4.214e-03   4.980e-02
   37  -3.693e-02  -2.866e-03   1.997e-01
   38  -9.277e-02  -2.705e-03   4.402e-01
   39  -1.854e-01  -2.330e-03   7.553e-01
   40  -3.183e-01  -2.034e-03   1.132e+00
   41  -4.922e-01  -1.755e-03   1.557e+00
   42  -7.055e-01  -1.505e-03   2.022e+00
   43  -9.554e-01  -1.279e-03   2.517e+00
   44  -1.238e+00  -1.073e-03   3.037e+00
   45  -1.550e+00  -8.856e-04   3.575e+00
   46  -1.886e+00  -7.136e-04   4.127e+00
   47  -2.243e+00  -5.542e-04   4.690e+00
   48  -2.616e+00  -4.043e-04   5.260e+00
   49  -3.001e+00  -2.645e-04   5.836e+00
   50  -3.394e+00  -1.164e-04   6.416e+00
   51  -3.790e+00  -3.504e-05   6.998e+00
   52   0.000e+00   0.000e+00   0.000e+00
   53  -1.013e-02   4.214e-03   4.980e-02
   54  -3.693e-02   2.866e-03   1.997e-01
   55  -9.277e-02   2.705e-03   4.402e-01
   56  -1.854e-01   2.330e-03   7.553e-01
   57  -3.183e-01   2.034e-03   1.132e+00
   58  -4.922e-01   1.755e-03   1.557e+00
   59  -7.055e-01   1.505e-03   2.022e+00
   60  -9.554e-01   1.279e-03   2.517e+00
   61  -1.238e+00   1.073e-03   3.037e+00
   62  -1.550e+00   8.856e-04   3.575e+00
   63  -1.886e+00   7.136e-04   4.127e+00
   64  -2.243e+00   5.542e-04   4.690e+00
   65  -2.616e+00   4.043e-04   5.260e+00
   66  -3.001e+00   2.645e-04   5.836e+00
   67  -3.394e+00   1.164e-04   6.416e+00
   68  -3.790e+00   3.505e-05   6.998e+00

Element Stress

        S11         S22         S33         S12         S23         S13
Element     1
  1.533e+05   3.833e+04   9.564e+03  -1.668e-05   1.162e-07   3.964e+02
  9.476e+04   1.979e+04   8.661e+02  -1.086e-05   1.870e-07   3.932e+02
 -5.848e+03  -5.347e+03  -5.657e+03   1.430e-07   3.212e-07   3.871e+02
 -9.293e+04  -1.739e+04   8.661e+02   1.108e-05   4.554e-07   3.811e+02
 -1.334e+05  -1.846e+04   9.564e+03   1.683e-05   5.262e-07   3.779e+02
Element     2
  1.409e+05   5.138e+03   1.174e+04  -3.125e-05  -1.006e-08   3.968e+02
  8.557e+04  -2.976e+03   1.202e+03  -2.037e-05   6.916e-08   3.969e+02
 -6.815e+03  -6.171e+03  -6.704e+03   2.006e-07   2.193e-07   3.970e+02
 -8.288e+04   6.589e+03   1.202e+03   2.069e-05   3.695e-07   3.971e+02
 -1.164e+05   1.975e+04   1.174e+04   3.146e-05   4.487e-07   3.971e+02
Element     3
  1.230e+05   9.376e+03   8.353e+03  -3.066e-05  -2.395e-07   3.686e+02
  7.577e+04   1.595e+03   8.122e+02  -2.000e-05  -1.754e-07   3.693e+02
 -4.822e+03  -4.449e+03  -4.843e+03   1.589e-07  -5.393e-08   3.706e+02
 -7.373e+04   9.063e+02   8.122e+02   2.024e-05   6.756e-08   3.719e+02
 -1.054e+05   8.324e+03   8.353e+03   3.081e-05   1.316e-07   3.726e+02
Element     4
  1.078e+05   6.226e+03   6.648e+03  -3.138e-05  -1.758e-07   3.466e+02
  6.681e+04   4.768e+02   6.658e+02  -2.048e-05  -1.074e-07   3.466e+02
 -3.740e+03  -3.513e+03  -3.821e+03   1.161e-07   2.226e-08   3.464e+02
 -6.502e+04   1.543e+03   6.658e+02   2.065e-05   1.520e-07   3.463e+02
 -9.362e+04   7.855e+03   6.648e+03   3.146e-05   2.204e-07   3.462e+02
Element     5
  9.365e+04   5.024e+03   5.053e+03  -3.035e-05  -2.094e-07   3.181e+02
  5.849e+04   5.455e+02   4.965e+02  -1.983e-05  -1.534e-07   3.185e+02
 -2.762e+03  -2.683e+03  -2.921e+03   6.814e-08  -4.724e-08   3.192e+02
 -5.695e+04   9.769e+02   4.965e+02   1.991e-05   5.889e-08   3.198e+02
 -8.270e+04   5.683e+03   5.053e+03   3.036e-05   1.149e-07   3.202e+02
Element     6
  8.092e+04   3.772e+03   3.828e+03  -2.843e-05  -2.244e-07   2.918e+02
  5.088e+04   3.957e+02   3.813e+02  -1.859e-05  -1.669e-07   2.919e+02
 -1.998e+03  -2.025e+03  -2.203e+03   2.155e-08  -5.777e-08   2.920e+02
 -4.953e+04   7.643e+02   3.813e+02   1.859e-05   5.131e-08   2.920e+02
 -7.246e+04   4.335e+03   3.828e+03   2.836e-05   1.089e-07   2.921e+02
Element     7
  6.946e+04   2.829e+03   2.846e+03  -2.576e-05  -2.149e-07   2.654e+02
  4.394e+04   3.071e+02   2.808e+02  -1.686e-05  -1.670e-07   2.656e+02
 -1.393e+03  -1.510e+03  -1.643e+03  -2.071e-08  -7.624e-08   2.659e+02
 -4.275e+04   5.519e+02   2.808e+02   1.679e-05   1.455e-08   2.662e+02
 -6.297e+04   3.202e+03   2.846e+03   2.564e-05   6.245e-08   2.664e+02
Element     8
  5.916e+04   2.076e+03   2.086e+03  -2.263e-05  -2.215e-07   2.417e+02
  3.764e+04   2.285e+02   2.074e+02  -1.483e-05  -1.742e-07   2.418e+02
 -9.202e+02  -1.104e+03  -1.202e+03  -5.795e-08  -8.442e-08   2.419e+02
 -3.657e+04   4.030e+02   2.074e+02   1.469e-05   5.332e-09   2.420e+02
 -5.420e+04   2.343e+03   2.086e+03   2.245e-05   5.268e-08   2.420e+02
Element     9
  4.989e+04   1.490e+03   1.494e+03  -1.922e-05  -2.035e-07   2.201e+02
  3.192e+04   1.647e+02   1.478e+02  -1.261e-05  -1.639e-07   2.202e+02
 -5.543e+02  -7.924e+02  -8.623e+02  -8.829e-08  -8.866e-08   2.203e+02
 -3.094e+04   2.866e+02   1.478e+02   1.241e-05  -1.347e-08   2.205e+02
 -4.613e+04   1.676e+03   1.494e+03   1.900e-05   2.620e-08   2.206e+02
Element    10
  4.152e+04   1.038e+03   1.042e+03  -1.573e-05  -1.976e-07   2.014e+02
  2.670e+04   1.147e+02   1.036e+02  -1.033e-05  -1.598e-07   2.014e+02
 -2.737e+02  -5.520e+02  -6.006e+02  -1.138e-07  -8.821e-08   2.015e+02
 -2.579e+04   2.007e+02   1.036e+02   1.009e-05  -1.661e-08   2.016e+02
 -3.867e+04   1.170e+03   1.042e+03   1.547e-05   2.116e-08   2.016e+02
Element    11
  3.391e+04   6.939e+02   6.987e+02  -1.229e-05  -1.742e-07   1.853e+02
  2.192e+04   7.537e+01   6.923e+01  -8.088e-06  -1.429e-07   1.854e+02
 -6.077e+01  -3.704e+02  -4.029e+02  -1.310e-07  -8.372e-08   1.854e+02
 -2.107e+04   1.356e+02   6.923e+01   7.817e-06  -2.451e-08   1.855e+02
 -3.176e+04   7.860e+02   6.987e+02   1.201e-05   6.722e-09   1.856e+02
Element    12
  2.695e+04   4.357e+02   4.425e+02  -9.044e-06  -1.543e-07   1.721e+02
  1.751e+04   4.538e+01   4.405e+01  -5.970e-06  -1.271e-07   1.722e+02
  9.820e+01  -2.344e+02  -2.548e+02  -1.455e-07  -7.539e-08   1.722e+02
 -1.670e+04   8.835e+01   4.405e+01   5.674e-06  -2.372e-08   1.722e+02
 -2.531e+04   5.013e+02   4.425e+02   8.742e-06   3.534e-09   1.723e+02
Element    13
  2.050e+04   2.517e+02   2.557e+02  -6.114e-06  -1.259e-07   1.617e+02
  1.340e+04   2.614e+01   2.545e+01  -4.055e-06  -1.045e-07   1.617e+02
  2.140e+02  -1.355e+02  -1.472e+02  -1.550e-07  -6.402e-08   1.617e+02
 -1.261e+04   5.097e+01   2.545e+01   3.743e-06  -2.354e-08   1.618e+02
 -1.924e+04   2.896e+02   2.557e+02   5.798e-06  -2.186e-09   1.618e+02
Element    14
  1.445e+04   1.047e+02   1.264e+02  -3.639e-06  -9.885e-08   1.539e+02
  9.513e+03   6.193e-02   1.271e+01  -2.437e-06  -8.227e-08   1.539e+02
  2.942e+02  -6.693e+01  -7.256e+01  -1.595e-07  -5.086e-08   1.539e+02
 -8.748e+03   3.797e+01   1.271e+01   2.117e-06  -1.944e-08   1.539e+02
 -1.345e+04   1.626e+02   1.264e+02   3.318e-06  -2.867e-09   1.540e+02
Element    15
  8.688e+03   1.102e+02   4.385e+01  -1.766e-06  -5.594e-08   1.488e+02
  5.790e+03   4.847e+01   4.483e+00  -1.213e-06  -4.642e-08   1.488e+02
  3.453e+02  -2.319e+01  -2.504e+01  -1.633e-07  -2.838e-08   1.488e+02
 -5.039e+03  -3.533e+01   4.483e+00   8.859e-07  -1.033e-08   1.488e+02
 -7.855e+03  -1.776e+01   4.385e+01   1.439e-06  -8.071e-10   1.488e+02
Element    16
  3.119e+03  -3.479e+02   6.162e+00  -6.782e-07  -2.505e-08   1.462e+02
  2.167e+03  -2.310e+02   8.193e-01  -5.007e-07  -2.196e-08   1.462e+02
  3.688e+02  -3.238e+00  -3.188e+00  -1.643e-07  -1.611e-08   1.462e+02
 -1.421e+03   2.326e+02   8.193e-01   1.722e-07  -1.026e-08   1.462e+02
 -2.362e+03   3.603e+02   6.162e+00   3.497e-07  -7.177e-09   1.462e+02

		 *** Successful end of program ***
