

TIME =   1.000e-01

Nodal Displacements

 Node          U1          U2          U3
    1   0.000e+00   0.000e+00   0.000e+00
    2   1.715e-03   3.729e-04   1.549e-02
    3   2.265e-03   2.539e-04   6.108e-02
    4   7.023e-04   6.943e-05   1.343e-01
    5  -3.517e-03  -3.616e-04   2.322e-01
    6  -6.646e-03  -3.548e-04   2.895e-01
    7  -1.064e-02  -3.811e-04   3.516e-01
    8  -1.543e-02  -4.141e-04   4.181e-01
    9  -2.097e-02  -4.450e-04   4.889e-01
   10  -2.725e-02  -4.765e-04   5.636e-01
   11  -3.426e-02  -5.118e-04   6.422e-01
   12  -4.197e-02  -5.480e-04   7.243e-01
   13  -5.038e-02  -5.773e-04   8.096e-01
   14  -6.908e-02  -5.909e-04   9.878e-01
   15  -8.965e-02  -6.523e-04   1.174e+00
   16  -1.116e-01  -7.311e-04   1.364e+00
   17  -1.342e-01  -8.044e-04   1.558e+00
   18  -1.342e-01  -8.187e-04   1.558e+00
   19  -1.229e-01  -8.034e-04   1.461e+00
   20  -1.117e-01  -7.998e-04   1.365e+00
   21  -1.005e-01  -7.928e-04   1.269e+00
   22  -8.965e-02  -7.743e-04   1.174e+00
   23  -6.907e-02  -7.886e-04   9.878e-01
   24  -5.046e-02  -7.940e-04   8.099e-01
   25  -3.429e-02  -7.940e-04   6.427e-01
   26  -2.092e-02  -7.967e-04   4.891e-01
   27  -1.055e-02  -8.020e-04   3.514e-01
   28  -3.240e-03  -7.841e-04   2.324e-01
   29   1.050e-03  -6.636e-04   1.347e-01
   30   2.641e-03  -2.646e-04   6.126e-02
   31   2.362e-03  -2.909e-04   3.452e-02
   32   1.737e-03  -3.104e-04   1.526e-02
   33   8.899e-04  -3.945e-04   3.773e-03
   34   0.000e+00   0.000e+00   0.000e+00
   35   0.000e+00   0.000e+00   0.000e+00
   36  -1.991e-03  -3.740e-04   1.542e-02
   37  -4.942e-03  -3.121e-04   6.081e-02
   38  -9.621e-03  -4.339e-04   1.337e-01
   39  -1.665e-02  -8.325e-04   2.313e-01
   40  -2.096e-02  -8.140e-04   2.885e-01
   41  -2.606e-02  -8.114e-04   3.504e-01
   42  -3.190e-02  -8.118e-04   4.167e-01
   43  -3.843e-02  -8.150e-04   4.873e-01
   44  -4.564e-02  -8.191e-04   5.619e-01
   45  -5.353e-02  -8.227e-04   6.403e-01
   46  -6.206e-02  -8.308e-04   7.223e-01
   47  -7.122e-02  -8.479e-04   8.074e-01
   48  -9.098e-02  -8.309e-04   9.854e-01
   49  -1.123e-01  -8.287e-04   1.171e+00
   50  -1.347e-01  -8.281e-04   1.362e+00
   51  -1.575e-01  -8.375e-04   1.555e+00
   52  -1.574e-01  -8.237e-04   1.555e+00
   53  -1.461e-01  -7.977e-04   1.459e+00
   54  -1.347e-01  -7.598e-04   1.362e+00
   55  -1.235e-01  -7.249e-04   1.266e+00
   56  -1.124e-01  -6.942e-04   1.171e+00
   57  -9.097e-02  -6.777e-04   9.854e-01
   58  -7.123e-02  -6.194e-04   8.077e-01
   59  -5.360e-02  -5.414e-04   6.408e-01
   60  -3.845e-02  -4.633e-04   4.875e-01
   61  -2.600e-02  -3.876e-04   3.502e-01
   62  -1.631e-02  -2.911e-04   2.315e-01
   63  -9.272e-03  -1.060e-04   1.342e-01
   64  -4.629e-03   3.225e-04   6.100e-02
   65  -3.163e-03   3.086e-04   3.437e-02
   66  -1.957e-03   3.109e-04   1.519e-02
   67  -9.149e-04   3.941e-04   3.753e-03
   68   0.000e+00   0.000e+00   0.000e+00

Element Stress

        S11         S22         S33         S12         S23         S13
Element     1
  2.296e+04   3.050e+03  -4.158e+00  -1.401e+02   7.326e+00   4.023e+01
  1.502e+04   2.001e+03  -1.242e+01  -9.636e+01   7.104e+00   3.983e+01
 -2.156e+01   2.309e+01  -1.861e+01  -1.357e+01   6.684e+00   3.906e+01
 -1.503e+04  -1.942e+03  -1.242e+01   6.912e+01   6.263e+00   3.829e+01
 -2.294e+04  -2.974e+03  -4.158e+00   1.127e+02   6.042e+00   3.789e+01
Element     2
  2.149e+04  -3.861e+02  -9.604e+00  -6.341e+01  -1.657e-01   3.795e+01
  1.406e+04  -2.566e+02  -1.805e+01  -4.782e+01  -2.798e-02   3.826e+01
 -3.624e+00  -1.233e-01  -2.439e+01  -1.828e+01   2.331e-01   3.886e+01
 -1.404e+04   2.705e+02  -1.805e+01   1.122e+01   4.943e-01   3.946e+01
 -2.143e+04   4.190e+02  -9.604e+00   2.677e+01   6.320e-01   3.978e+01
Element     3
  1.988e+04   5.863e+01  -1.745e+00  -1.210e+02  -2.018e+00   4.118e+01
  1.301e+04   2.889e+01  -8.809e+00  -7.868e+01  -1.990e+00   4.123e+01
 -7.880e+00  -1.851e+01  -1.411e+01   1.557e+00  -1.938e+00   4.132e+01
 -1.300e+04  -5.418e+01  -8.809e+00   8.172e+01  -1.886e+00   4.141e+01
 -1.984e+04  -6.826e+01  -1.745e+00   1.240e+02  -1.859e+00   4.145e+01
Element     4
  1.823e+04  -5.732e+01   6.439e-01  -1.736e+01  -3.088e+00   3.881e+01
  1.190e+04  -5.223e+01  -5.372e+00   2.994e+00  -2.184e+00   3.936e+01
 -7.156e+01  -3.494e+01  -9.885e+00   4.156e+01  -4.714e-01   4.041e+01
 -1.203e+04  -7.607e+00  -5.372e+00   8.009e+01   1.242e+00   4.146e+01
 -1.833e+04   1.085e+01   6.439e-01   1.004e+02   2.145e+00   4.201e+01
Element     5
  1.703e+04   1.649e+01   1.884e+00   9.344e+01   2.271e+00   4.240e+01
  1.113e+04  -2.495e+00  -3.335e+00   7.249e+01   1.301e+00   4.174e+01
 -4.877e+01  -3.186e+01  -7.250e+00   3.279e+01  -5.400e-01   4.049e+01
 -1.121e+04  -5.253e+01  -3.335e+00  -6.884e+00  -2.380e+00   3.923e+01
 -1.709e+04  -5.994e+01   1.884e+00  -2.780e+01  -3.351e+00   3.857e+01
Element     6
  1.554e+04  -4.320e+01  -3.041e+00   9.343e+01   3.136e-01   3.963e+01
  1.018e+04  -3.011e+01  -7.373e+00   5.519e+01   2.311e-01   3.956e+01
  2.404e+01   2.326e-01  -1.062e+01  -1.726e+01   7.484e-02   3.941e+01
 -1.011e+04   3.780e+01  -7.373e+00  -8.967e+01  -8.147e-02   3.926e+01
 -1.546e+04   6.053e+01  -3.041e+00  -1.278e+02  -1.639e-01   3.918e+01
Element     7
  1.392e+04  -3.329e+01  -4.261e+00   1.215e+02  -2.879e+00   4.026e+01
  9.113e+03  -1.763e+01  -7.743e+00   7.218e+01  -2.709e+00   4.030e+01
  1.492e+01   1.648e+01  -1.036e+01  -2.124e+01  -2.387e+00   4.037e+01
 -9.072e+03   5.641e+01  -7.743e+00  -1.146e+02  -2.065e+00   4.045e+01
 -1.386e+04   7.982e+01  -4.261e+00  -1.638e+02  -1.895e+00   4.048e+01
Element     8
  1.243e+04  -1.238e+00  -5.340e+00   1.605e+02  -1.395e+00   3.802e+01
  8.134e+03   2.248e+00  -8.117e+00   1.031e+02  -1.336e+00   3.810e+01
  2.078e-01   1.239e+01  -1.020e+01  -5.593e+00  -1.225e+00   3.827e+01
 -8.124e+03   2.716e+01  -8.117e+00  -1.143e+02  -1.114e+00   3.843e+01
 -1.241e+04   3.682e+01  -5.340e+00  -1.716e+02  -1.055e+00   3.851e+01
Element     9
  1.104e+04   2.558e+01  -2.634e+00   1.688e+02   1.048e+00   3.801e+01
  7.225e+03   1.714e+01  -4.818e+00   1.114e+02   1.089e+00   3.805e+01
  1.473e+00   3.912e+00  -6.455e+00   2.567e+00   1.168e+00   3.813e+01
 -7.215e+03  -5.684e+00  -4.818e+00  -1.062e+02   1.246e+00   3.820e+01
 -1.102e+04  -9.283e+00  -2.634e+00  -1.636e+02   1.288e+00   3.824e+01
Element    10
  9.581e+03   5.387e+01  -8.725e-01   1.445e+02   2.445e+00   3.982e+01
  6.272e+03   3.364e+01  -2.509e+00   9.502e+01   2.391e+00   3.986e+01
  4.833e+00  -2.631e+00  -3.736e+00   1.283e+00   2.288e+00   3.993e+01
 -6.257e+03  -3.618e+01  -2.509e+00  -9.241e+01   2.186e+00   4.000e+01
 -9.558e+03  -5.279e+01  -8.725e-01  -1.418e+02   2.132e+00   4.004e+01
Element    11
  7.991e+03   4.591e+01  -4.254e-01   1.071e+02  -4.478e-02   3.881e+01
  5.231e+03   2.807e+01  -1.564e+00   6.924e+01  -3.973e-02   3.882e+01
  3.223e+00  -4.305e+00  -2.417e+00  -2.492e+00  -3.015e-02   3.884e+01
 -5.221e+03  -3.479e+01  -1.564e+00  -7.419e+01  -2.057e-02   3.887e+01
 -7.976e+03  -5.011e+01  -4.254e-01  -1.120e+02  -1.551e-02   3.888e+01
Element    12
  6.443e+03  -3.887e+01   8.589e-02   5.334e+01   8.818e-01   3.969e+01
  4.217e+03  -2.709e+01  -6.646e-01   3.320e+01   7.884e-01   3.973e+01
 -1.449e+00  -3.789e+00  -1.227e+00  -4.977e+00   6.114e-01   3.981e+01
 -4.217e+03   2.076e+01  -6.646e-01  -4.314e+01   4.344e-01   3.989e+01
 -6.440e+03   3.422e+01   8.589e-02  -6.327e+01   3.411e-01   3.993e+01
Element    13
  5.257e+03   3.446e+01   1.730e-01  -6.009e+01   2.596e-01   4.003e+01
  3.443e+03   2.137e+01  -3.185e-01  -4.010e+01   3.786e-01   3.995e+01
  5.859e+00  -2.820e+00  -6.871e-01  -2.200e+00   6.041e-01   3.980e+01
 -3.430e+03  -2.620e+01  -3.185e-01   3.569e+01   8.296e-01   3.964e+01
 -5.241e+03  -3.820e+01   1.730e-01   5.567e+01   9.486e-01   3.956e+01
Element    14
  3.725e+03  -4.666e+01  -2.722e-01  -1.052e+02  -1.730e-01   3.856e+01
  2.443e+03  -3.003e+01  -5.239e-01  -6.761e+01  -1.801e-01   3.856e+01
  1.363e+01   1.832e+00  -7.127e-01   3.638e+00  -1.937e-01   3.856e+01
 -2.415e+03   3.411e+01  -5.239e-01   7.487e+01  -2.072e-01   3.857e+01
 -3.696e+03   5.131e+01  -2.722e-01   1.124e+02  -2.143e-01   3.857e+01
Element    15
  2.144e+03  -4.228e+01  -3.576e-01  -1.372e+02   3.511e+00   4.014e+01
  1.407e+03  -2.692e+01  -4.423e-01  -8.908e+01   3.484e+00   4.016e+01
  1.070e+01   2.320e+00  -5.059e-01   2.105e+00   3.434e+00   4.020e+01
 -1.385e+03   3.170e+01  -4.423e-01   9.328e+01   3.384e+00   4.023e+01
 -2.122e+03   4.726e+01  -3.576e-01   1.414e+02   3.358e+00   4.025e+01
Element    16
  6.947e+02  -7.681e+01  -1.131e-01  -1.662e+02  -3.823e+00   3.728e+01
  4.580e+02  -5.023e+01  -1.243e-01  -1.088e+02  -3.826e+00   3.729e+01
  9.280e+00   1.700e-01  -1.326e-01   9.571e-02  -3.832e+00   3.731e+01
 -4.394e+02   5.059e+01  -1.243e-01   1.090e+02  -3.839e+00   3.734e+01
 -6.761e+02   7.720e+01  -1.131e-01   1.664e+02  -3.842e+00   3.735e+01



TIME =   2.000e-01

Nodal Displacements

 Node          U1          U2          U3
    1   0.000e+00   0.000e+00   0.000e+00
    2   3.051e-03   7.146e-04   2.986e-02
    3   1.964e-03   4.333e-04   1.175e-01
    4  -6.565e-03  -1.836e-04   2.578e-01
    5  -2.452e-02  -1.715e-03   4.445e-01
    6  -3.701e-02  -1.675e-03   5.535e-01
    7  -5.253e-02  -1.742e-03   6.711e-01
    8  -7.083e-02  -1.829e-03   7.968e-01
    9  -9.177e-02  -1.910e-03   9.302e-01
   10  -1.153e-01  -1.991e-03   1.071e+00
   11  -1.413e-01  -2.081e-03   1.218e+00
   12  -1.697e-01  -2.176e-03   1.372e+00
   13  -2.005e-01  -2.258e-03   1.531e+00
   14  -2.684e-01  -2.260e-03   1.863e+00
   15  -3.424e-01  -2.400e-03   2.209e+00
   16  -4.208e-01  -2.586e-03   2.563e+00
   17  -5.015e-01  -2.765e-03   2.921e+00
   18  -5.015e-01  -2.792e-03   2.921e+00
   19  -4.612e-01  -2.742e-03   2.742e+00
   20  -4.211e-01  -2.714e-03   2.563e+00
   21  -3.814e-01  -2.679e-03   2.386e+00
   22  -3.424e-01  -2.617e-03   2.209e+00
   23  -2.683e-01  -2.665e-03   1.863e+00
   24  -2.007e-01  -2.654e-03   1.532e+00
   25  -1.414e-01  -2.610e-03   1.219e+00
   26  -9.163e-02  -2.570e-03   9.305e-01
   27  -5.220e-02  -2.536e-03   6.707e-01
   28  -2.347e-02  -2.415e-03   4.449e-01
   29  -5.317e-03  -1.931e-03   2.587e-01
   30   3.278e-03  -4.586e-04   1.179e-01
   31   3.820e-03  -5.449e-04   6.647e-02
   32   3.141e-03  -5.974e-04   2.938e-02
   33   1.686e-03  -7.601e-04   7.261e-03
   34   0.000e+00   0.000e+00   0.000e+00
   35   0.000e+00   0.000e+00   0.000e+00
   36  -4.073e-03  -7.183e-04   2.959e-02
   37  -1.185e-02  -6.423e-04   1.166e-01
   38  -2.626e-02  -1.133e-03   2.558e-01
   39  -4.945e-02  -2.594e-03   4.413e-01
   40  -6.413e-02  -2.534e-03   5.497e-01
   41  -8.168e-02  -2.542e-03   6.667e-01
   42  -1.019e-01  -2.563e-03   7.919e-01
   43  -1.246e-01  -2.590e-03   9.247e-01
   44  -1.498e-01  -2.618e-03   1.065e+00
   45  -1.773e-01  -2.649e-03   1.212e+00
   46  -2.073e-01  -2.691e-03   1.365e+00
   47  -2.394e-01  -2.750e-03   1.524e+00
   48  -3.091e-01  -2.695e-03   1.855e+00
   49  -3.845e-01  -2.716e-03   2.199e+00
   50  -4.636e-01  -2.754e-03   2.553e+00
   51  -5.445e-01  -2.814e-03   2.911e+00
   52  -5.444e-01  -2.789e-03   2.911e+00
   53  -5.041e-01  -2.720e-03   2.732e+00
   54  -4.638e-01  -2.628e-03   2.554e+00
   55  -4.239e-01  -2.541e-03   2.376e+00
   56  -3.846e-01  -2.456e-03   2.200e+00
   57  -3.090e-01  -2.446e-03   1.855e+00
   58  -2.395e-01  -2.314e-03   1.524e+00
   59  -1.776e-01  -2.123e-03   1.212e+00
   60  -1.246e-01  -1.929e-03   9.249e-01
   61  -8.141e-02  -1.738e-03   6.663e-01
   62  -4.828e-02  -1.465e-03   4.418e-01
   63  -2.501e-02  -8.541e-04   2.568e-01
   64  -1.066e-02   6.684e-04   1.170e-01
   65  -6.785e-03   6.099e-04   6.590e-02
   66  -3.952e-03   5.992e-04   2.912e-02
   67  -1.778e-03   7.582e-04   7.188e-03
   68   0.000e+00   0.000e+00   0.000e+00

Element Stress

        S11         S22         S33         S12         S23         S13
Element     1
  4.415e+04   5.926e+03  -1.504e+01  -3.104e+02   1.578e+01   8.215e+01
  2.885e+04   3.896e+03  -4.556e+01  -2.204e+02   1.496e+01   8.066e+01
 -7.957e+01   8.513e+01  -6.845e+01  -5.013e+01   1.340e+01   7.784e+01
 -2.890e+04  -3.678e+03  -4.556e+01   1.198e+02   1.185e+01   7.501e+01
 -4.407e+04  -5.644e+03  -1.504e+01   2.092e+02   1.103e+01   7.352e+01
Element     2
  4.128e+04  -7.376e+02  -3.529e+01  -1.803e+02  -8.305e-01   7.382e+01
  2.699e+04  -4.975e+02  -6.641e+01  -1.407e+02  -3.009e-01   7.500e+01
 -1.417e+01  -2.398e+00  -8.974e+01  -6.585e+01   7.030e-01   7.723e+01
 -2.692e+04   5.451e+02  -6.641e+01   8.870e+00   1.707e+00   7.947e+01
 -4.106e+04   8.550e+02  -3.529e+01   4.822e+01   2.237e+00   8.065e+01
Element     3
  3.806e+04   9.025e+01  -6.120e+00  -2.383e+02  -4.329e+00   8.165e+01
  2.489e+04   2.398e+01  -3.198e+01  -1.534e+02  -4.236e+00   8.181e+01
 -3.058e+01  -6.880e+01  -5.138e+01   7.255e+00  -4.061e+00   8.213e+01
 -2.486e+04  -1.186e+02  -3.198e+01   1.677e+02  -3.885e+00   8.244e+01
 -3.792e+04  -1.275e+02  -6.120e+00   2.522e+02  -3.793e+00   8.260e+01
Element     4
  3.466e+04  -1.490e+02   2.216e+00   4.394e+01  -1.058e+01   7.425e+01
  2.258e+04  -1.510e+02  -1.964e+01   8.103e+01  -7.311e+00   7.625e+01
 -2.604e+02  -1.269e+02  -3.604e+01   1.513e+02  -1.119e+00   8.003e+01
 -2.303e+04  -6.627e+01  -1.964e+01   2.214e+02   5.074e+00   8.382e+01
 -3.501e+04  -1.961e+01   2.216e+00   2.583e+02   8.340e+00   8.581e+01
Element     5
  3.234e+04  -9.695e-01   6.886e+00   2.477e+02   9.432e+00   8.660e+01
  2.109e+04  -4.871e+01  -1.199e+01   2.029e+02   5.910e+00   8.419e+01
 -1.743e+02  -1.152e+02  -2.614e+01   1.181e+02  -7.668e-01   7.962e+01
 -2.138e+04  -1.503e+02  -1.199e+01   3.341e+01  -7.443e+00   7.506e+01
 -3.254e+04  -1.562e+02   6.886e+00  -1.120e+01  -1.097e+01   7.265e+01
Element     6
  2.952e+04  -8.388e+01  -1.097e+01   1.532e+02   1.145e+00   7.806e+01
  1.934e+04  -6.108e+01  -2.654e+01   7.819e+01   8.518e-01   7.778e+01
  8.987e+01   1.993e+00  -3.822e+01  -6.382e+01   2.954e-01   7.725e+01
 -1.911e+04   9.106e+01  -2.654e+01  -2.056e+02  -2.609e-01   7.673e+01
 -2.922e+04   1.485e+02  -1.097e+01  -2.804e+02  -5.544e-01   7.645e+01
Element     7
  2.632e+04  -3.594e+01  -1.537e+01   1.939e+02  -6.822e+00   7.840e+01
  1.724e+04  -8.147e+00  -2.778e+01   1.002e+02  -6.193e+00   7.854e+01
  5.564e+01   6.038e+01  -3.709e+01  -7.709e+01  -4.999e+00   7.883e+01
 -1.709e+04   1.496e+02  -2.778e+01  -2.542e+02  -3.806e+00   7.911e+01
 -2.611e+04   2.051e+02  -1.537e+01  -3.475e+02  -3.176e+00   7.926e+01
Element     8
  2.339e+04   2.232e+01  -1.904e+01   2.984e+02  -3.196e+00   7.291e+01
  1.531e+04   2.557e+01  -2.886e+01   1.884e+02  -2.984e+00   7.322e+01
  2.370e+00   4.423e+01  -3.623e+01  -1.994e+01  -2.583e+00   7.381e+01
 -1.527e+04   7.926e+01  -2.886e+01  -2.280e+02  -2.182e+00   7.440e+01
 -2.331e+04   1.043e+02  -1.904e+01  -3.377e+02  -1.970e+00   7.471e+01
Element     9
  2.072e+04   5.867e+01  -9.217e+00   3.282e+02   1.760e+00   7.243e+01
  1.356e+04   3.970e+01  -1.690e+01   2.179e+02   1.912e+00   7.257e+01
  6.905e+00   1.352e+01  -2.266e+01   8.958e+00   2.200e+00   7.284e+01
 -1.352e+04   1.270e-01  -1.690e+01  -1.998e+02   2.487e+00   7.311e+01
 -2.065e+04  -1.787e+00  -9.217e+00  -3.098e+02   2.639e+00   7.326e+01
Element    10
  1.795e+04   9.993e+01  -3.041e+00   2.780e+02   4.859e+00   7.531e+01
  1.175e+04   5.968e+01  -8.775e+00   1.835e+02   4.668e+00   7.544e+01
  1.870e+01  -9.354e+00  -1.307e+01   4.356e+00   4.304e+00   7.569e+01
 -1.170e+04  -6.886e+01  -8.775e+00  -1.746e+02   3.941e+00   7.594e+01
 -1.787e+04  -9.642e+01  -3.041e+00  -2.690e+02   3.749e+00   7.607e+01
Element    11
  1.494e+04   8.101e+01  -1.474e+00   1.995e+02  -9.833e-02   7.309e+01
  9.784e+03   4.611e+01  -5.447e+00   1.276e+02  -7.532e-02   7.313e+01
  1.314e+01  -1.503e+01  -8.427e+00  -8.757e+00  -3.169e-02   7.320e+01
 -9.744e+03  -6.957e+01  -5.447e+00  -1.450e+02   1.194e-02   7.328e+01
 -1.489e+04  -9.569e+01  -1.474e+00  -2.168e+02   3.495e-02   7.332e+01
Element    12
  1.202e+04  -7.703e+01   2.904e-01   9.333e+01   2.144e+00   7.428e+01
  7.868e+03  -5.611e+01  -2.321e+00   5.512e+01   1.818e+00   7.442e+01
 -2.945e+00  -1.314e+01  -4.280e+00  -1.729e+01   1.200e+00   7.468e+01
 -7.865e+03   3.420e+01  -2.321e+00  -8.966e+01   5.825e-01   7.495e+01
 -1.201e+04   6.093e+01   2.904e-01  -1.278e+02   2.566e-01   7.509e+01
Element    13
  9.810e+03   6.120e+01   6.049e-01  -1.150e+02  -1.081e-01   7.533e+01
  6.429e+03   3.595e+01  -1.102e+00  -7.792e+01   3.071e-01   7.505e+01
  2.260e+01  -9.766e+00  -2.382e+00  -7.586e+00   1.094e+00   7.451e+01
 -6.378e+03  -5.265e+01  -1.102e+00   6.271e+01   1.881e+00   7.398e+01
 -9.752e+03  -7.412e+01   6.049e-01   9.978e+01   2.296e+00   7.369e+01
Element    14
  6.958e+03  -8.468e+01  -9.448e-01  -1.894e+02  -2.660e-01   7.195e+01
  4.571e+03  -5.361e+01  -1.817e+00  -1.196e+02  -2.917e-01   7.196e+01
  4.954e+01   6.410e+00  -2.470e+00   1.268e+01  -3.403e-01   7.197e+01
 -4.469e+03   6.790e+01  -1.817e+00   1.449e+02  -3.890e-01   7.199e+01
 -6.852e+03   1.009e+02  -9.448e-01   2.147e+02  -4.146e-01   7.199e+01
Element    15
  4.003e+03  -7.548e+01  -1.243e+00  -2.514e+02   6.706e+00   7.461e+01
  2.634e+03  -4.676e+01  -1.536e+00  -1.620e+02   6.615e+00   7.467e+01
  3.932e+01   8.059e+00  -1.755e+00   7.302e+00   6.442e+00   7.479e+01
 -2.554e+03   6.337e+01  -1.536e+00   1.766e+02   6.269e+00   7.491e+01
 -3.922e+03   9.275e+01  -1.243e+00   2.659e+02   6.177e+00   7.498e+01
Element    16
  1.307e+03  -1.424e+02  -3.916e-01  -3.086e+02  -7.078e+00   6.916e+01
  8.675e+02  -9.304e+01  -4.299e-01  -2.019e+02  -7.089e+00   6.920e+01
  3.438e+01   5.874e-01  -4.587e-01   3.254e-01  -7.111e+00   6.928e+01
 -7.987e+02   9.428e+01  -4.299e-01   2.026e+02  -7.132e+00   6.937e+01
 -1.238e+03   1.437e+02  -3.916e-01   3.092e+02  -7.143e+00   6.941e+01



TIME =   3.000e-01

Nodal Displacements

 Node          U1          U2          U3
    1   0.000e+00   0.000e+00   0.000e+00
    2   4.029e-03   1.012e-03   4.255e-02
    3  -1.967e-04   5.492e-04   1.671e-01
    4  -1.911e-02  -6.300e-04   3.652e-01
    5  -5.650e-02  -3.609e-03   6.274e-01
    6  -8.200e-02  -3.510e-03   7.798e-01
    7  -1.133e-01  -3.616e-03   9.436e-01
    8  -1.499e-01  -3.753e-03   1.118e+00
    9  -1.915e-01  -3.876e-03   1.302e+00
   10  -2.379e-01  -3.997e-03   1.496e+00
   11  -2.890e-01  -4.130e-03   1.699e+00
   12  -3.447e-01  -4.270e-03   1.909e+00
   13  -4.048e-01  -4.392e-03   2.127e+00
   14  -5.362e-01  -4.327e-03   2.579e+00
   15  -6.790e-01  -4.497e-03   3.047e+00
   16  -8.296e-01  -4.743e-03   3.526e+00
   17  -9.842e-01  -4.980e-03   4.010e+00
   18  -9.842e-01  -5.018e-03   4.010e+00
   19  -9.070e-01  -4.952e-03   3.768e+00
   20  -8.301e-01  -4.917e-03   3.527e+00
   21  -7.540e-01  -4.871e-03   3.287e+00
   22  -6.791e-01  -4.782e-03   3.048e+00
   23  -5.360e-01  -4.916e-03   2.579e+00
   24  -4.050e-01  -4.922e-03   2.127e+00
   25  -2.892e-01  -4.854e-03   1.700e+00
   26  -1.912e-01  -4.785e-03   1.303e+00
   27  -1.126e-01  -4.713e-03   9.429e-01
   28  -5.443e-02  -4.463e-03   6.281e-01
   29  -1.669e-02  -3.497e-03   3.668e-01
   30   2.361e-03  -5.927e-04   1.678e-01
   31   4.517e-03  -7.571e-04   9.459e-02
   32   4.218e-03  -8.505e-04   4.179e-02
   33   2.365e-03  -1.083e-03   1.032e-02
   34   0.000e+00   0.000e+00   0.000e+00
   35   0.000e+00   0.000e+00   0.000e+00
   36  -6.096e-03  -1.019e-03   4.201e-02
   37  -1.973e-02  -9.547e-04   1.651e-01
   38  -4.681e-02  -1.944e-03   3.613e-01
   39  -9.132e-02  -4.806e-03   6.211e-01
   40  -1.198e-01  -4.684e-03   7.724e-01
   41  -1.537e-01  -4.699e-03   9.351e-01
   42  -1.928e-01  -4.737e-03   1.108e+00
   43  -2.367e-01  -4.782e-03   1.292e+00
   44  -2.853e-01  -4.829e-03   1.484e+00
   45  -3.384e-01  -4.879e-03   1.686e+00
   46  -3.960e-01  -4.948e-03   1.895e+00
   47  -4.578e-01  -5.039e-03   2.112e+00
   48  -5.915e-01  -4.896e-03   2.562e+00
   49  -7.360e-01  -4.905e-03   3.030e+00
   50  -8.875e-01  -4.950e-03   3.508e+00
   51  -1.042e+00  -5.026e-03   3.991e+00
   52  -1.042e+00  -4.993e-03   3.992e+00
   53  -9.649e-01  -4.901e-03   3.750e+00
   54  -8.879e-01  -4.779e-03   3.509e+00
   55  -8.115e-01  -4.661e-03   3.269e+00
   56  -7.361e-01  -4.540e-03   3.030e+00
   57  -5.913e-01  -4.594e-03   2.562e+00
   58  -4.578e-01  -4.434e-03   2.112e+00
   59  -3.388e-01  -4.160e-03   1.687e+00
   60  -2.366e-01  -3.873e-03   1.292e+00
   61  -1.531e-01  -3.580e-03   9.343e-01
   62  -8.909e-02  -3.111e-03   6.219e-01
   63  -4.438e-02  -1.959e-03   3.629e-01
   64  -1.737e-02   1.005e-03   1.658e-01
   65  -1.052e-02   8.876e-04   9.343e-02
   66  -5.849e-03   8.538e-04   4.127e-02
   67  -2.548e-03   1.079e-03   1.017e-02
   68   0.000e+00   0.000e+00   0.000e+00

Element Stress

        S11         S22         S33         S12         S23         S13
Element     1
  6.276e+04   8.496e+03  -2.946e+01  -5.042e+02   2.492e+01   1.249e+02
  4.098e+04   5.596e+03  -9.109e+01  -3.648e+02   2.327e+01   1.219e+02
 -1.604e+02   1.713e+02  -1.373e+02  -1.011e+02   2.013e+01   1.162e+02
 -4.109e+04  -5.157e+03  -9.109e+01   1.617e+02   1.699e+01   1.106e+02
 -6.259e+04  -7.929e+03  -2.946e+01   3.000e+02   1.533e+01   1.076e+02
Element     2
  5.854e+04  -1.063e+03  -7.071e+01  -3.443e+02  -1.802e+00   1.079e+02
  3.826e+04  -7.271e+02  -1.332e+02  -2.696e+02  -6.749e-01   1.104e+02
 -3.089e+01  -1.041e+01  -1.801e+02  -1.281e+02   1.462e+00   1.149e+02
 -3.812e+04   8.115e+02  -1.332e+02   1.297e+01   3.599e+00   1.195e+02
 -5.812e+04   1.288e+03  -7.071e+01   8.722e+01   4.726e+00   1.219e+02
Element     3
  5.375e+04   9.050e+01  -1.144e+01  -3.495e+02  -6.875e+00   1.212e+02
  3.512e+04  -1.168e+01  -6.296e+01  -2.221e+02  -6.714e+00   1.215e+02
 -6.576e+01  -1.399e+02  -1.016e+02   1.881e+01  -6.410e+00   1.221e+02
 -3.508e+04  -1.825e+02  -6.296e+01   2.592e+02  -6.106e+00   1.227e+02
 -5.348e+04  -1.704e+02  -1.144e+01   3.857e+02  -5.945e+00   1.230e+02
Element     4
  4.856e+04  -2.570e+02   4.014e+00   1.571e+02  -2.050e+01   1.071e+02
  3.157e+04  -2.735e+02  -3.909e+01   2.061e+02  -1.411e+01   1.110e+02
 -5.142e+02  -2.498e+02  -7.141e+01   2.988e+02  -1.989e+00   1.184e+02
 -3.246e+04  -1.542e+02  -3.909e+01   3.913e+02   1.013e+01   1.258e+02
 -4.925e+04  -7.484e+01   4.014e+00   4.400e+02   1.652e+01   1.296e+02
Element     5
  4.518e+04  -3.601e+01   1.369e+01   4.386e+02   1.949e+01   1.305e+02
  2.943e+04  -1.177e+02  -2.325e+01   3.664e+02   1.256e+01   1.257e+02
 -3.352e+02  -2.255e+02  -5.096e+01   2.298e+02  -5.651e-01   1.167e+02
 -2.997e+04  -2.718e+02  -2.325e+01   9.353e+01  -1.370e+01   1.077e+02
 -4.556e+04  -2.715e+02   1.369e+01   2.176e+01  -2.062e+01   1.030e+02
Element     6
  4.120e+04  -1.300e+02  -2.142e+01   1.879e+02   2.314e+00   1.143e+02
  2.701e+04  -9.597e+01  -5.165e+01   7.841e+01   1.754e+00   1.137e+02
  1.843e+02   7.163e+00  -7.432e+01  -1.288e+02   6.919e-01   1.127e+02
 -2.654e+04   1.608e+02  -5.165e+01  -3.357e+02  -3.704e-01   1.117e+02
 -4.060e+04   2.622e+02  -2.142e+01  -4.446e+02  -9.307e-01   1.112e+02
Element     7
  3.650e+04  -2.621e+01  -2.998e+01   2.277e+02  -1.157e+01   1.134e+02
  2.391e+04   1.389e+01  -5.379e+01   9.658e+01  -1.030e+01   1.137e+02
  1.137e+02   1.203e+02  -7.165e+01  -1.516e+02  -7.880e+00   1.143e+02
 -2.361e+04   2.665e+02  -5.379e+01  -3.994e+02  -5.466e+00   1.149e+02
 -3.609e+04   3.596e+02  -2.998e+01  -5.299e+02  -4.192e+00   1.152e+02
Element     8
  3.225e+04   5.517e+01  -3.654e+01   4.126e+02  -5.265e+00   1.035e+02
  2.110e+04   5.726e+01  -5.518e+01   2.568e+02  -4.852e+00   1.041e+02
  9.178e+00   8.496e+01  -6.916e+01  -3.822e+01  -4.070e+00   1.053e+02
 -2.102e+04   1.437e+02  -5.518e+01  -3.328e+02  -3.287e+00   1.065e+02
 -3.208e+04   1.873e+02  -3.654e+01  -4.880e+02  -2.874e+00   1.071e+02
Element     9
  2.846e+04   9.005e+01  -1.721e+01   4.690e+02   2.178e+00   1.018e+02
  1.863e+04   6.117e+01  -3.168e+01   3.127e+02   2.481e+00   1.020e+02
  1.795e+01   2.480e+01  -4.253e+01   1.667e+01   3.056e+00   1.025e+02
 -1.854e+04   1.252e+01  -3.168e+01  -2.789e+02   3.631e+00   1.031e+02
 -2.831e+04   1.575e+01  -1.721e+01  -4.347e+02   3.934e+00   1.033e+02
Element    10
  2.458e+04   1.344e+02  -5.652e+00   3.929e+02   6.990e+00   1.047e+02
  1.610e+04   7.711e+01  -1.638e+01   2.598e+02   6.625e+00   1.049e+02
  4.009e+01  -1.786e+01  -2.443e+01   7.779e+00   5.932e+00   1.054e+02
 -1.598e+04  -9.501e+01  -1.638e+01  -2.440e+02   5.239e+00   1.059e+02
 -2.442e+04  -1.285e+02  -5.652e+00  -3.767e+02   4.874e+00   1.061e+02
Element    11
  2.041e+04   1.045e+02  -2.716e+00   2.746e+02  -1.644e-01   1.009e+02
  1.336e+04   5.547e+01  -1.011e+01   1.740e+02  -1.062e-01   1.010e+02
  2.991e+01  -2.799e+01  -1.566e+01  -1.646e+01   4.160e-03   1.011e+02
 -1.328e+04  -9.918e+01  -1.011e+01  -2.068e+02   1.145e-01   1.012e+02
 -2.029e+04  -1.318e+02  -2.716e+00  -3.071e+02   1.727e-01   1.013e+02
Element    12
  1.638e+04  -1.103e+02   5.148e-01   1.223e+02   3.511e+00   1.017e+02
  1.072e+04  -8.270e+01  -4.327e+00   6.898e+01   2.904e+00   1.020e+02
  5.300e-01  -2.422e+01  -7.958e+00  -3.197e+01   1.752e+00   1.025e+02
 -1.070e+04   4.235e+01  -4.327e+00  -1.328e+02   6.003e-01   1.030e+02
 -1.634e+04   8.072e+01   5.148e-01  -1.860e+02  -7.263e-03   1.032e+02
Element    13
  1.336e+04   8.002e+01   1.129e+00  -1.590e+02  -8.088e-01   1.035e+02
  8.758e+03   4.480e+01  -2.025e+00  -1.088e+02  -3.551e-02   1.030e+02
  4.818e+01  -1.798e+01  -4.391e+00  -1.388e+01   1.430e+00   1.020e+02
 -8.651e+03  -7.553e+01  -2.025e+00   8.102e+01   2.896e+00   1.010e+02
 -1.324e+04  -1.038e+02   1.129e+00   1.311e+02   3.670e+00   1.005e+02
Element    14
  9.471e+03  -1.138e+02  -1.746e+00  -2.498e+02  -2.780e-01   9.802e+01
  6.233e+03  -7.110e+01  -3.351e+00  -1.554e+02  -3.278e-01   9.803e+01
  9.788e+01   1.197e+01  -4.554e+00   2.357e+01  -4.221e-01   9.806e+01
 -6.032e+03   9.774e+01  -3.351e+00   2.024e+02  -5.164e-01   9.808e+01
 -9.263e+03   1.441e+02  -1.746e+00   2.967e+02  -5.661e-01   9.809e+01
Element    15
  5.446e+03  -9.966e+01  -2.302e+00  -3.366e+02   9.321e+00   1.011e+02
  3.592e+03  -6.034e+01  -2.839e+00  -2.157e+02   9.153e+00   1.012e+02
  7.881e+01   1.490e+01  -3.241e+00   1.348e+01   8.836e+00   1.015e+02
 -3.433e+03   9.105e+01  -2.839e+00   2.426e+02   8.518e+00   1.017e+02
 -5.284e+03   1.316e+02  -2.302e+00   3.634e+02   8.351e+00   1.018e+02
Element    16
  1.791e+03  -1.924e+02  -7.205e-01  -4.175e+02  -9.550e+00   9.349e+01
  1.197e+03  -1.256e+02  -7.908e-01  -2.731e+02  -9.570e+00   9.357e+01
  6.967e+01   1.079e+00  -8.434e-01   5.809e-01  -9.609e+00   9.372e+01
 -1.057e+03   1.279e+02  -7.908e-01   2.743e+02  -9.648e+00   9.387e+01
 -1.651e+03   1.949e+02  -7.205e-01   4.186e+02  -9.669e+00   9.395e+01



TIME =   4.000e-01

Nodal Displacements

 Node          U1          U2          U3
    1   0.000e+00   0.000e+00   0.000e+00
    2   4.725e-03   1.267e-03   5.357e-02
    3  -3.490e-03   6.219e-04   2.098e-01
    4  -3.446e-02  -1.154e-03   4.569e-01
    5  -9.374e-02  -5.665e-03   7.815e-01
    6  -1.337e-01  -5.488e-03   9.694e-01
    7  -1.823e-01  -5.617e-03   1.170e+00
    8  -2.387e-01  -5.788e-03   1.383e+00
    9  -3.025e-01  -5.932e-03   1.608e+00
   10  -3.733e-01  -6.066e-03   1.843e+00
   11  -4.510e-01  -6.212e-03   2.088e+00
   12  -5.353e-01  -6.365e-03   2.342e+00
   13  -6.260e-01  -6.494e-03   2.604e+00
   14  -8.233e-01  -6.301e-03   3.145e+00
   15  -1.037e+00  -6.426e-03   3.703e+00
   16  -1.261e+00  -6.649e-03   4.273e+00
   17  -1.491e+00  -6.862e-03   4.848e+00
   18  -1.491e+00  -6.907e-03   4.848e+00
   19  -1.376e+00  -6.864e-03   4.561e+00
   20  -1.261e+00  -6.855e-03   4.274e+00
   21  -1.148e+00  -6.835e-03   3.988e+00
   22  -1.037e+00  -6.755e-03   3.703e+00
   23  -8.228e-01  -7.038e-03   3.144e+00
   24  -6.262e-01  -7.120e-03   2.603e+00
   25  -4.512e-01  -7.083e-03   2.089e+00
   26  -3.019e-01  -7.030e-03   1.608e+00
   27  -1.811e-01  -6.955e-03   1.169e+00
   28  -9.059e-02  -6.590e-03   7.826e-01
   29  -3.082e-02  -5.122e-03   4.592e-01
   30   4.064e-04  -6.849e-04   2.109e-01
   31   4.666e-03  -9.325e-04   1.189e-01
   32   5.031e-03  -1.070e-03   5.252e-02
   33   2.935e-03  -1.365e-03   1.297e-02
   34   0.000e+00   0.000e+00   0.000e+00
   35   0.000e+00   0.000e+00   0.000e+00
   36  -7.993e-03  -1.276e-03   5.273e-02
   37  -2.789e-02  -1.232e-03   2.067e-01
   38  -6.883e-02  -2.753e-03   4.508e-01
   39  -1.366e-01  -7.096e-03   7.718e-01
   40  -1.800e-01  -6.898e-03   9.580e-01
   41  -2.318e-01  -6.904e-03   1.157e+00
   42  -2.910e-01  -6.942e-03   1.369e+00
   43  -3.574e-01  -6.988e-03   1.591e+00
   44  -4.307e-01  -7.031e-03   1.825e+00
   45  -5.106e-01  -7.077e-03   2.068e+00
   46  -5.970e-01  -7.144e-03   2.320e+00
   47  -6.895e-01  -7.235e-03   2.581e+00
   48  -8.893e-01  -6.950e-03   3.120e+00
   49  -1.104e+00  -6.882e-03   3.677e+00
   50  -1.330e+00  -6.866e-03   4.246e+00
   51  -1.560e+00  -6.889e-03   4.820e+00
   52  -1.560e+00  -6.851e-03   4.820e+00
   53  -1.445e+00  -6.775e-03   4.533e+00
   54  -1.330e+00  -6.663e-03   4.247e+00
   55  -1.217e+00  -6.556e-03   3.961e+00
   56  -1.105e+00  -6.439e-03   3.677e+00
   57  -8.889e-01  -6.623e-03   3.119e+00
   58  -6.895e-01  -6.503e-03   2.581e+00
   59  -5.110e-01  -6.213e-03   2.069e+00
   60  -3.571e-01  -5.889e-03   1.591e+00
   61  -2.307e-01  -5.536e-03   1.156e+00
   62  -1.333e-01  -4.891e-03   7.730e-01
   63  -6.518e-02  -3.184e-03   4.531e-01
   64  -2.426e-02   1.316e-03   2.078e-01
   65  -1.417e-02   1.137e-03   1.171e-01
   66  -7.595e-03   1.075e-03   5.169e-02
   67  -3.221e-03   1.357e-03   1.273e-02
   68   0.000e+00   0.000e+00   0.000e+00

Element Stress

        S11         S22         S33         S12         S23         S13
Element     1
  7.885e+04   1.075e+04  -4.479e+01  -7.120e+02   3.434e+01   1.678e+02
  5.144e+04   7.091e+03  -1.420e+02  -5.207e+02   3.172e+01   1.631e+02
 -2.526e+02   2.690e+02  -2.149e+02  -1.592e+02   2.677e+01   1.542e+02
 -5.161e+04  -6.401e+03  -1.420e+02   2.008e+02   2.182e+01   1.454e+02
 -7.857e+04  -9.859e+03  -4.479e+01   3.902e+02   1.920e+01   1.407e+02
Element     2
  7.333e+04  -1.371e+03  -1.105e+02  -5.392e+02  -3.018e+00   1.408e+02
  4.790e+04  -9.500e+02  -2.086e+02  -4.194e+02  -1.138e+00   1.447e+02
 -5.291e+01  -2.657e+01  -2.821e+02  -1.931e+02   2.427e+00   1.520e+02
 -4.769e+04   1.062e+03  -2.086e+02   3.255e+01   5.991e+00   1.593e+02
 -7.268e+04   1.703e+03  -1.105e+02   1.512e+02   7.872e+00   1.631e+02
Element     3
  6.698e+04   6.491e+01  -1.638e+01  -4.526e+02  -9.511e+00   1.599e+02
  4.374e+04  -6.934e+01  -9.638e+01  -2.833e+02  -9.308e+00   1.604e+02
 -1.107e+02  -2.222e+02  -1.564e+02   3.695e+01  -8.923e+00   1.612e+02
 -4.370e+04  -2.419e+02  -9.638e+01   3.562e+02  -8.538e+00   1.620e+02
 -6.658e+04  -1.987e+02  -1.638e+01   5.242e+02  -8.335e+00   1.624e+02
Element     4
  6.002e+04  -3.679e+02   5.496e+00   2.946e+02  -3.118e+01   1.381e+02
  3.896e+04  -4.019e+02  -6.059e+01   3.515e+02  -2.146e+01   1.440e+02
 -7.896e+02  -3.823e+02  -1.102e+02   4.591e+02  -3.029e+00   1.552e+02
 -4.032e+04  -2.523e+02  -6.059e+01   5.664e+02   1.540e+01   1.664e+02
 -6.108e+04  -1.393e+02   5.496e+00   6.229e+02   2.512e+01   1.723e+02
Element     5
  5.565e+04  -7.623e+01   2.120e+01   6.421e+02   3.068e+01   1.729e+02
  3.621e+04  -1.930e+02  -3.497e+01   5.400e+02   2.009e+01   1.656e+02
 -4.984e+02  -3.428e+02  -7.711e+01   3.469e+02   1.620e-02   1.517e+02
 -3.702e+04  -3.990e+02  -3.497e+01   1.543e+02  -2.006e+01   1.379e+02
 -5.621e+04  -3.909e+02   2.120e+01   5.291e+01  -3.065e+01   1.306e+02
Element     6
  5.063e+04  -1.821e+02  -3.248e+01   2.067e+02   3.595e+00   1.479e+02
  3.321e+04  -1.335e+02  -7.799e+01   6.509e+01   2.771e+00   1.471e+02
  2.953e+02   1.678e+01  -1.121e+02  -2.029e+02   1.208e+00   1.456e+02
 -3.246e+04   2.431e+02  -7.799e+01  -4.703e+02  -3.546e-01   1.441e+02
 -4.968e+04   3.932e+02  -3.248e+01  -6.111e+02  -1.179e+00   1.433e+02
Element     7
  4.452e+04  -1.492e+01  -4.542e+01   2.382e+02  -1.676e+01   1.450e+02
  2.918e+04   3.905e+01  -8.077e+01   7.579e+01  -1.475e+01   1.455e+02
  1.814e+02   1.865e+02  -1.073e+02  -2.317e+02  -1.094e+01   1.465e+02
 -2.870e+04   3.930e+02  -8.077e+01  -5.385e+02  -7.127e+00   1.476e+02
 -4.388e+04   5.257e+02  -4.542e+01  -7.001e+02  -5.116e+00   1.481e+02
Element     8
  3.907e+04   8.705e+01  -5.427e+01   5.077e+02  -7.400e+00   1.297e+02
  2.556e+04   8.857e+01  -8.161e+01   3.126e+02  -6.776e+00   1.307e+02
  2.209e+01   1.263e+02  -1.021e+02  -5.669e+01  -5.593e+00   1.325e+02
 -2.543e+04   2.096e+02  -8.161e+01  -4.253e+02  -4.409e+00   1.344e+02
 -3.881e+04   2.719e+02  -5.427e+01  -6.195e+02  -3.785e+00   1.354e+02
Element     9
  3.434e+04   1.152e+02  -2.475e+01   5.890e+02   2.398e+00   1.261e+02
  2.247e+04   7.825e+01  -4.578e+01   3.936e+02   2.871e+00   1.265e+02
  3.522e+01   3.489e+01  -6.156e+01   2.387e+01   3.770e+00   1.273e+02
 -2.233e+04   2.654e+01  -4.578e+01  -3.453e+02   4.668e+00   1.280e+02
 -3.410e+04   3.624e+01  -2.475e+01  -5.398e+02   5.142e+00   1.284e+02
Element    10
  2.956e+04   1.581e+02  -8.093e+00   4.879e+02   8.752e+00   1.281e+02
  1.936e+04   8.764e+01  -2.358e+01   3.230e+02   8.212e+00   1.285e+02
  6.729e+01  -2.635e+01  -3.519e+01   1.059e+01   7.190e+00   1.292e+02
 -1.917e+04  -1.146e+02  -2.358e+01  -3.014e+02   6.168e+00   1.299e+02
 -2.930e+04  -1.508e+02  -8.093e+00  -4.657e+02   5.629e+00   1.302e+02
Element    11
  2.446e+04   1.187e+02  -3.848e+00   3.342e+02  -2.525e-01   1.225e+02
  1.602e+04   5.921e+01  -1.446e+01   2.105e+02  -1.408e-01   1.226e+02
  5.298e+01  -4.014e+01  -2.241e+01  -2.387e+01   7.104e-02   1.227e+02
 -1.588e+04  -1.219e+02  -1.446e+01  -2.580e+02   2.828e-01   1.229e+02
 -2.427e+04  -1.579e+02  -3.848e+00  -3.814e+02   3.946e-01   1.230e+02
Element    12
  1.958e+04  -1.372e+02   6.930e-01   1.439e+02   4.789e+00   1.225e+02
  1.282e+04  -1.047e+02  -6.217e+00   7.849e+01   3.916e+00   1.228e+02
  1.178e+01  -3.434e+01  -1.140e+01  -4.550e+01   2.260e+00   1.235e+02
 -1.277e+04   4.759e+01  -6.217e+00  -1.694e+02   6.038e-01   1.242e+02
 -1.950e+04   9.546e+01   6.930e-01  -2.347e+02  -2.697e-01   1.246e+02
Element    13
  1.595e+04   9.267e+01   1.626e+00  -1.910e+02  -1.584e+00   1.247e+02
  1.047e+04   4.991e+01  -2.859e+00  -1.317e+02  -4.734e-01   1.240e+02
  8.025e+01  -2.546e+01  -6.224e+00  -1.952e+01   1.632e+00   1.226e+02
 -1.029e+04  -9.339e+01  -2.859e+00   9.261e+01   3.738e+00   1.211e+02
 -1.576e+04  -1.262e+02   1.626e+00   1.517e+02   4.849e+00   1.204e+02
Element    14
  1.130e+04  -1.358e+02  -2.483e+00  -2.902e+02  -2.295e-01   1.172e+02
  7.450e+03  -8.393e+01  -4.755e+00  -1.783e+02  -3.041e-01   1.172e+02
  1.508e+02   1.723e+01  -6.459e+00   3.374e+01  -4.455e-01   1.172e+02
 -7.140e+03   1.222e+02  -4.755e+00   2.457e+02  -5.869e-01   1.173e+02
 -1.098e+04   1.791e+02  -2.483e+00   3.575e+02  -6.615e-01   1.173e+02
Element    15
  6.494e+03  -1.169e+02  -3.281e+00  -3.961e+02   1.132e+01   1.202e+02
  4.293e+03  -6.952e+01  -4.037e+00  -2.527e+02   1.109e+01   1.204e+02
  1.234e+02   2.121e+01  -4.604e+00   1.913e+01   1.064e+01   1.207e+02
 -4.044e+03   1.132e+02  -4.037e+00   2.909e+02   1.019e+01   1.210e+02
 -6.241e+03   1.623e+02  -3.281e+00   4.342e+02   9.960e+00   1.212e+02
Element    16
  2.151e+03  -2.281e+02  -1.020e+00  -4.952e+02  -1.130e+01   1.108e+02
  1.446e+03  -1.488e+02  -1.119e+00  -3.239e+02  -1.133e+01   1.109e+02
  1.104e+02   1.527e+00  -1.193e+00   7.863e-01  -1.138e+01   1.111e+02
 -1.225e+03   1.521e+02  -1.119e+00   3.255e+02  -1.144e+01   1.113e+02
 -1.930e+03   2.316e+02  -1.020e+00   4.967e+02  -1.146e+01   1.114e+02



TIME =   5.000e-01

Nodal Displacements

 Node          U1          U2          U3
    1   0.000e+00   0.000e+00   0.000e+00
    2   5.216e-03   1.486e-03   6.319e-02
    3  -7.412e-03   6.686e-04   2.467e-01
    4  -5.104e-02  -1.685e-03   5.352e-01
    5  -1.327e-01  -7.669e-03   9.115e-01
    6  -1.873e-01  -7.400e-03   1.128e+00
    7  -2.531e-01  -7.537e-03   1.359e+00
    8  -3.291e-01  -7.720e-03   1.603e+00
    9  -4.145e-01  -7.860e-03   1.858e+00
   10  -5.090e-01  -7.980e-03   2.125e+00
   11  -6.122e-01  -8.108e-03   2.402e+00
   12  -7.239e-01  -8.240e-03   2.689e+00
   13  -8.436e-01  -8.341e-03   2.983e+00
   14  -1.103e+00  -7.969e-03   3.590e+00
   15  -1.382e+00  -7.979e-03   4.214e+00
   16  -1.674e+00  -8.100e-03   4.849e+00
   17  -1.974e+00  -8.210e-03   5.489e+00
   18  -1.973e+00  -8.261e-03   5.489e+00
   19  -1.824e+00  -8.276e-03   5.169e+00
   20  -1.675e+00  -8.330e-03   4.850e+00
   21  -1.527e+00  -8.370e-03   4.531e+00
   22  -1.382e+00  -8.338e-03   4.214e+00
   23  -1.102e+00  -8.819e-03   3.589e+00
   24  -8.436e-01  -9.035e-03   2.983e+00
   25  -6.124e-01  -9.086e-03   2.403e+00
   26  -4.137e-01  -9.100e-03   1.858e+00
   27  -2.514e-01  -9.062e-03   1.357e+00
   28  -1.285e-01  -8.614e-03   9.130e-01
   29  -4.625e-02  -6.677e-03   5.382e-01
   30  -2.202e-03  -7.496e-04   2.482e-01
   31   4.446e-03  -1.078e-03   1.400e-01
   32   5.649e-03  -1.262e-03   6.182e-02
   33   3.418e-03  -1.612e-03   1.525e-02
   34   0.000e+00   0.000e+00   0.000e+00
   35   0.000e+00   0.000e+00   0.000e+00
   36  -9.751e-03  -1.497e-03   6.202e-02
   37  -3.596e-02  -1.470e-03   2.425e-01
   38  -9.098e-02  -3.505e-03   5.269e-01
   39  -1.822e-01  -9.269e-03   8.984e-01
   40  -2.405e-01  -8.983e-03   1.113e+00
   41  -3.098e-01  -8.964e-03   1.341e+00
   42  -3.888e-01  -8.983e-03   1.583e+00
   43  -4.770e-01  -9.006e-03   1.836e+00
   44  -5.741e-01  -9.022e-03   2.101e+00
   45  -6.796e-01  -9.037e-03   2.376e+00
   46  -7.934e-01  -9.073e-03   2.661e+00
   47  -9.149e-01  -9.131e-03   2.954e+00
   48  -1.177e+00  -8.659e-03   3.557e+00
   49  -1.457e+00  -8.454e-03   4.180e+00
   50  -1.751e+00  -8.311e-03   4.813e+00
   51  -2.050e+00  -8.209e-03   5.453e+00
   52  -2.050e+00  -8.168e-03   5.453e+00
   53  -1.900e+00  -8.148e-03   5.133e+00
   54  -1.751e+00  -8.086e-03   4.814e+00
   55  -1.603e+00  -8.028e-03   4.496e+00
   56  -1.457e+00  -7.954e-03   4.179e+00
   57  -1.176e+00  -8.322e-03   3.556e+00
   58  -9.148e-01  -8.307e-03   2.953e+00
   59  -6.799e-01  -8.068e-03   2.377e+00
   60  -4.764e-01  -7.767e-03   1.836e+00
   61  -3.082e-01  -7.401e-03   1.340e+00
   62  -1.778e-01  -6.619e-03   9.000e-01
   63  -8.616e-02  -4.390e-03   5.299e-01
   64  -3.108e-02   1.597e-03   2.440e-01
   65  -1.767e-02   1.359e-03   1.375e-01
   66  -9.187e-03   1.266e-03   6.069e-02
   67  -3.810e-03   1.600e-03   1.493e-02
   68   0.000e+00   0.000e+00   0.000e+00

Element Stress

        S11         S22         S33         S12         S23         S13
Element     1
  9.280e+04   1.273e+04  -5.954e+01  -9.263e+02   4.373e+01   2.105e+02
  6.051e+04   8.406e+03  -1.941e+02  -6.818e+02   4.012e+01   2.041e+02
 -3.491e+02   3.704e+02  -2.951e+02  -2.199e+02   3.327e+01   1.919e+02
 -6.074e+04  -7.456e+03  -1.941e+02   2.397e+02   2.642e+01   1.798e+02
 -9.242e+04  -1.150e+04  -5.954e+01   4.813e+02   2.280e+01   1.734e+02
Element     2
  8.603e+04  -1.667e+03  -1.516e+02  -7.500e+02  -4.467e+00   1.729e+02
  5.617e+04  -1.169e+03  -2.864e+02  -5.784e+02  -1.718e+00   1.783e+02
 -7.945e+01  -5.167e+01  -3.876e+02  -2.540e+02   3.493e+00   1.885e+02
 -5.588e+04   1.293e+03  -2.864e+02   6.898e+01   8.704e+00   1.988e+02
 -8.514e+04   2.095e+03  -1.516e+02   2.389e+02   1.145e+01   2.042e+02
Element     3
  7.814e+04   2.135e+01  -2.031e+01  -5.471e+02  -1.211e+01   1.978e+02
  5.100e+04  -1.406e+02  -1.292e+02  -3.366e+02  -1.190e+01   1.983e+02
 -1.628e+02  -3.093e+02  -2.108e+02   6.133e+01  -1.152e+01   1.993e+02
 -5.097e+04  -2.968e+02  -1.292e+02   4.579e+02  -1.113e+01   2.003e+02
 -7.762e+04  -2.172e+02  -2.031e+01   6.665e+02  -1.092e+01   2.008e+02
Element     4
  6.944e+04  -4.750e+02   6.398e+00   4.380e+02  -4.163e+01   1.680e+02
  4.501e+04  -5.269e+02  -8.236e+01   5.002e+02  -2.869e+01   1.758e+02
 -1.062e+03  -5.121e+02  -1.489e+02   6.177e+02  -4.167e+00   1.906e+02
 -4.684e+04  -3.491e+02  -8.236e+01   7.347e+02   2.036e+01   2.054e+02
 -7.087e+04  -2.035e+02   6.398e+00   7.962e+02   3.330e+01   2.132e+02
Element     5
  6.415e+04  -1.151e+02   2.878e+01   8.427e+02   4.193e+01   2.132e+02
  4.171e+04  -2.657e+02  -4.600e+01   7.095e+02   2.775e+01   2.034e+02
 -6.466e+02  -4.559e+02  -1.021e+02   4.576e+02   8.767e-01   1.847e+02
 -4.275e+04  -5.213e+02  -4.600e+01   2.067e+02  -2.600e+01   1.661e+02
 -6.486e+04  -5.055e+02   2.878e+01   7.461e+01  -4.018e+01   1.563e+02
Element     6
  5.816e+04  -2.377e+02  -4.314e+01   2.161e+02   4.823e+00   1.792e+02
  3.816e+04  -1.714e+02  -1.030e+02   4.452e+01   3.769e+00   1.781e+02
  4.148e+02   3.088e+01  -1.480e+02  -2.801e+02   1.772e+00   1.762e+02
 -3.714e+04   3.333e+02  -1.030e+02  -6.039e+02  -2.248e-01   1.743e+02
 -5.686e+04   5.332e+02  -4.314e+01  -7.743e+02  -1.278e+00   1.733e+02
Element     7
  5.075e+04  -6.349e+00  -6.021e+01   2.373e+02  -2.212e+01   1.735e+02
  3.327e+04   6.301e+01  -1.061e+02   4.818e+01  -1.934e+01   1.743e+02
  2.536e+02   2.530e+02  -1.404e+02  -3.097e+02  -1.406e+01   1.758e+02
 -3.261e+04   5.197e+02  -1.061e+02  -6.669e+02  -8.788e+00   1.772e+02
 -4.988e+04   6.913e+02  -6.021e+01  -8.549e+02  -6.005e+00   1.780e+02
Element     8
  4.423e+04   1.136e+02  -7.045e+01   5.891e+02  -9.451e+00   1.523e+02
  2.894e+04   1.156e+02  -1.054e+02   3.600e+02  -8.626e+00   1.536e+02
  4.112e+01   1.639e+02  -1.317e+02  -7.344e+01  -7.061e+00   1.561e+02
 -2.874e+04   2.706e+02  -1.054e+02  -5.060e+02  -5.497e+00   1.586e+02
 -4.388e+04   3.504e+02  -7.045e+01  -7.339e+02  -4.672e+00   1.599e+02
Element     9
  3.870e+04   1.335e+02  -3.101e+01   6.898e+02   2.499e+00   1.463e+02
  2.533e+04   9.037e+01  -5.768e+01   4.617e+02   3.150e+00   1.468e+02
  5.830e+01   4.263e+01  -7.769e+01   2.975e+01   4.385e+00   1.477e+02
 -2.512e+04   3.930e+01  -5.768e+01  -4.014e+02   5.620e+00   1.486e+02
 -3.837e+04   5.543e+01  -3.101e+01  -6.285e+02   6.272e+00   1.491e+02
Element    10
  3.318e+04   1.736e+02  -1.011e+01   5.653e+02   1.016e+01   1.467e+02
  2.174e+04   9.341e+01  -2.959e+01   3.742e+02   9.464e+00   1.471e+02
  9.880e+01  -3.392e+01  -4.420e+01   1.245e+01   8.147e+00   1.480e+02
 -2.148e+04  -1.289e+02  -2.959e+01  -3.488e+02   6.830e+00   1.488e+02
 -3.283e+04  -1.659e+02  -1.011e+01  -5.391e+02   6.135e+00   1.493e+02
Element    11
  2.737e+04   1.267e+02  -4.746e+00   3.817e+02  -3.671e-01   1.389e+02
  1.794e+04   5.982e+01  -1.801e+01   2.393e+02  -1.854e-01   1.390e+02
  8.132e+01  -5.015e+01  -2.795e+01  -3.019e+01   1.591e-01   1.392e+02
 -1.773e+04  -1.381e+02  -1.801e+01  -2.994e+02   5.035e-01   1.394e+02
 -2.711e+04  -1.756e+02  -4.746e+00  -4.413e+02   6.852e-01   1.396e+02
Element    12
  2.186e+04  -1.581e+02   8.020e-01   1.612e+02   5.897e+00   1.378e+02
  1.431e+04  -1.219e+02  -7.791e+00   8.604e+01   4.801e+00   1.382e+02
  3.107e+01  -4.240e+01  -1.424e+01  -5.641e+01   2.723e+00   1.391e+02
 -1.422e+04   5.148e+01  -7.791e+00  -1.987e+02   6.443e-01   1.399e+02
 -2.173e+04   1.068e+02   8.020e-01  -2.737e+02  -4.521e-01   1.404e+02
Element    13
  1.778e+04   1.010e+02   2.044e+00  -2.126e+02  -2.298e+00   1.402e+02
  1.168e+04   5.284e+01  -3.513e+00  -1.474e+02  -9.045e-01   1.393e+02
  1.168e+02  -3.140e+01  -7.681e+00  -2.388e+01   1.736e+00   1.375e+02
 -1.143e+04  -1.064e+02  -3.513e+00   9.954e+01   4.377e+00   1.358e+02
 -1.751e+04  -1.423e+02   2.044e+00   1.646e+02   5.770e+00   1.349e+02
Element    14
  1.259e+04  -1.523e+02  -3.079e+00  -3.161e+02  -1.432e-01   1.307e+02
  8.307e+03  -9.346e+01  -5.880e+00  -1.924e+02  -2.406e-01   1.308e+02
  2.040e+02   2.162e+01  -7.981e+00   4.207e+01  -4.253e-01   1.308e+02
 -7.890e+03   1.414e+02  -5.880e+00   2.764e+02  -6.099e-01   1.309e+02
 -1.216e+04   2.065e+02  -3.079e+00   3.999e+02  -7.073e-01   1.309e+02
Element    15
  7.225e+03  -1.291e+02  -4.074e+00  -4.360e+02   1.279e+01   1.334e+02
  4.788e+03  -7.586e+01  -5.002e+00  -2.772e+02   1.250e+01   1.336e+02
  1.696e+02   2.630e+01  -5.698e+00   2.366e+01   1.196e+01   1.340e+02
 -4.445e+03   1.300e+02  -5.002e+00   3.244e+02   1.142e+01   1.344e+02
 -6.879e+03   1.854e+02  -4.074e+00   4.831e+02   1.113e+01   1.346e+02
Element    16
  2.411e+03  -2.523e+02  -1.259e+00  -5.481e+02  -1.248e+01   1.225e+02
  1.631e+03  -1.646e+02  -1.380e+00  -3.585e+02  -1.251e+01   1.227e+02
  1.536e+02   1.886e+00  -1.470e+00   9.120e-01  -1.258e+01   1.229e+02
 -1.324e+03   1.686e+02  -1.380e+00   3.603e+02  -1.264e+01   1.232e+02
 -2.103e+03   2.566e+02  -1.259e+00   5.499e+02  -1.268e+01   1.233e+02



TIME =   6.000e-01

Nodal Displacements

 Node          U1          U2          U3
    1   0.000e+00   0.000e+00   0.000e+00
    2   5.559e-03   1.677e-03   7.168e-02
    3  -1.166e-02   7.005e-04   2.790e-01
    4  -6.797e-02  -2.189e-03   6.029e-01
    5  -1.716e-01  -9.526e-03   1.022e+00
    6  -2.403e-01  -9.157e-03   1.263e+00
    7  -3.227e-01  -9.286e-03   1.518e+00
    8  -4.171e-01  -9.461e-03   1.785e+00
    9  -5.228e-01  -9.577e-03   2.066e+00
   10  -6.392e-01  -9.660e-03   2.357e+00
   11  -7.660e-01  -9.743e-03   2.659e+00
   12  -9.026e-01  -9.826e-03   2.970e+00
   13  -1.049e+00  -9.869e-03   3.289e+00
   14  -1.363e+00  -9.288e-03   3.944e+00
   15  -1.701e+00  -9.128e-03   4.616e+00
   16  -2.054e+00  -9.087e-03   5.298e+00
   17  -2.415e+00  -9.032e-03   5.985e+00
   18  -2.414e+00  -9.088e-03   5.984e+00
   19  -2.234e+00  -9.190e-03   5.641e+00
   20  -2.055e+00  -9.333e-03   5.298e+00
   21  -1.876e+00  -9.461e-03   4.956e+00
   22  -1.701e+00  -9.508e-03   4.615e+00
   23  -1.362e+00  -1.022e-02   3.943e+00
   24  -1.048e+00  -1.061e-02   3.288e+00
   25  -7.659e-01  -1.080e-02   2.659e+00
   26  -5.216e-01  -1.092e-02   2.065e+00
   27  -3.204e-01  -1.096e-02   1.515e+00
   28  -1.665e-01  -1.046e-02   1.024e+00
   29  -6.216e-02  -8.108e-03   6.066e-01
   30  -5.220e-03  -7.965e-04   2.810e-01
   31   3.974e-03  -1.201e-03   1.586e-01
   32   6.125e-03  -1.431e-03   6.999e-02
   33   3.833e-03  -1.831e-03   1.726e-02
   34   0.000e+00   0.000e+00   0.000e+00
   35   0.000e+00   0.000e+00   0.000e+00
   36  -1.138e-02  -1.689e-03   7.017e-02
   37  -4.379e-02  -1.672e-03   2.737e-01
   38  -1.126e-01  -4.179e-03   5.923e-01
   39  -2.264e-01  -1.124e-02   1.006e+00
   40  -2.992e-01  -1.086e-02   1.244e+00
   41  -3.850e-01  -1.081e-02   1.496e+00
   42  -4.826e-01  -1.079e-02   1.761e+00
   43  -5.911e-01  -1.077e-02   2.039e+00
   44  -7.101e-01  -1.074e-02   2.328e+00
   45  -8.392e-01  -1.070e-02   2.627e+00
   46  -9.780e-01  -1.068e-02   2.936e+00
   47  -1.126e+00  -1.068e-02   3.253e+00
   48  -1.443e+00  -9.990e-03   3.905e+00
   49  -1.782e+00  -9.601e-03   4.574e+00
   50  -2.136e+00  -9.279e-03   5.255e+00
   51  -2.497e+00  -8.999e-03   5.941e+00
   52  -2.497e+00  -8.957e-03   5.941e+00
   53  -2.316e+00  -9.021e-03   5.598e+00
   54  -2.137e+00  -9.040e-03   5.255e+00
   55  -1.958e+00  -9.062e-03   4.914e+00
   56  -1.782e+00  -9.063e-03   4.573e+00
   57  -1.442e+00  -9.650e-03   3.903e+00
   58  -1.125e+00  -9.790e-03   3.252e+00
   59  -8.393e-01  -9.657e-03   2.627e+00
   60  -5.901e-01  -9.428e-03   2.037e+00
   61  -3.828e-01  -9.090e-03   1.494e+00
   62  -2.211e-01  -8.209e-03   1.008e+00
   63  -1.067e-01  -5.516e-03   5.960e-01
   64  -3.774e-02   1.849e-03   2.755e-01
   65  -2.098e-02   1.559e-03   1.554e-01
   66  -1.064e-02   1.435e-03   6.854e-02
   67  -4.330e-03   1.813e-03   1.684e-02
   68   0.000e+00   0.000e+00   0.000e+00

Element Stress

        S11         S22         S33         S12         S23         S13
Element     1
  1.051e+05   1.448e+04  -7.301e+01  -1.142e+03   5.295e+01   2.529e+02
  6.846e+04   9.574e+03  -2.454e+02  -8.441e+02   4.833e+01   2.448e+02
 -4.464e+02   4.712e+02  -3.748e+02  -2.810e+02   3.958e+01   2.294e+02
 -6.876e+04  -8.363e+03  -2.454e+02   2.791e+02   3.083e+01   2.140e+02
 -1.046e+05  -1.291e+04  -7.301e+01   5.734e+02   2.621e+01   2.059e+02
Element     2
  9.703e+04  -1.957e+03  -1.922e+02  -9.667e+02  -6.142e+00   2.043e+02
  6.334e+04  -1.387e+03  -3.638e+02  -7.387e+02  -2.439e+00   2.114e+02
 -1.098e+02  -8.543e+01  -4.925e+02  -3.081e+02   4.581e+00   2.247e+02
 -6.299e+04   1.506e+03  -3.638e+02   1.205e+02   1.160e+01   2.380e+02
 -9.593e+04   2.462e+03  -1.922e+02   3.459e+02   1.530e+01   2.450e+02
Element     3
  8.763e+04  -3.360e+01  -2.298e+01  -6.337e+02  -1.459e+01   2.350e+02
  5.717e+04  -2.195e+02  -1.599e+02  -3.829e+02  -1.443e+01   2.355e+02
 -2.200e+02  -3.977e+02  -2.626e+02   9.106e+01  -1.412e+01   2.366e+02
 -5.716e+04  -3.479e+02  -1.599e+02   5.631e+02  -1.382e+01   2.376e+02
 -8.701e+04  -2.298e+02  -2.298e+01   8.113e+02  -1.366e+01   2.382e+02
Element     4
  7.726e+04  -5.757e+02   6.642e+00   5.771e+02  -5.142e+01   1.968e+02
  5.002e+04  -6.442e+02  -1.035e+02   6.430e+02  -3.551e+01   2.064e+02
 -1.318e+03  -6.336e+02  -1.862e+02   7.675e+02  -5.345e+00   2.246e+02
 -5.229e+04  -4.390e+02  -1.035e+02   8.914e+02   2.482e+01   2.427e+02
 -7.904e+04  -2.623e+02   6.642e+00   9.566e+02   4.073e+01   2.523e+02
Element     5
  7.109e+04  -1.501e+02   3.612e+01   1.032e+03   5.271e+01   2.515e+02
  4.619e+04  -3.321e+02  -5.584e+01   8.678e+02   3.517e+01   2.392e+02
 -7.728e+02  -5.598e+02  -1.248e+02   5.572e+02   1.924e+00   2.161e+02
 -4.743e+04  -6.339e+02  -5.584e+01   2.479e+02  -3.132e+01   1.929e+02
 -7.192e+04  -6.112e+02   3.612e+01   8.513e+01  -4.886e+01   1.807e+02
Element     6
  6.419e+04  -2.943e+02  -5.296e+01   2.200e+02   5.907e+00   2.082e+02
  4.215e+04  -2.079e+02  -1.258e+02   2.035e+01   4.671e+00   2.070e+02
  5.382e+02   4.892e+01  -1.804e+02  -3.572e+02   2.330e+00   2.047e+02
 -4.083e+04   4.276e+02  -1.258e+02  -7.336e+02  -1.164e-02   2.024e+02
 -6.255e+04   6.765e+02  -5.296e+01  -9.318e+02  -1.247e+00   2.012e+02
Element     7
  5.557e+04  -1.549e+00  -7.374e+01   2.322e+02  -2.747e+01   1.992e+02
  3.644e+04   8.424e+01  -1.286e+02   1.968e+01  -2.391e+01   2.002e+02
  3.274e+02   3.170e+02  -1.698e+02  -3.825e+02  -1.717e+01   2.023e+02
 -3.560e+04   6.415e+02  -1.286e+02  -7.836e+02  -1.043e+01   2.043e+02
 -5.448e+04   8.497e+02  -7.374e+01  -9.948e+02  -6.869e+00   2.053e+02
Element     8
  4.810e+04   1.338e+02  -8.441e+01   6.606e+02  -1.134e+01   1.717e+02
  3.147e+04   1.371e+02  -1.258e+02   4.019e+02  -1.033e+01   1.733e+02
  6.557e+01   1.962e+02  -1.568e+02  -8.777e+01  -8.421e+00   1.765e+02
 -3.120e+04   3.242e+02  -1.258e+02  -5.763e+02  -6.512e+00   1.796e+02
 -4.765e+04   4.195e+02  -8.441e+01  -8.336e+02  -5.506e+00   1.813e+02
Element     9
  4.189e+04   1.455e+02  -3.579e+01   7.744e+02   2.532e+00   1.630e+02
  2.742e+04   9.809e+01  -6.700e+01   5.185e+02   3.363e+00   1.636e+02
  8.631e+01   4.788e+01  -9.041e+01   3.416e+01   4.937e+00   1.646e+02
 -2.715e+04   4.964e+01  -6.700e+01  -4.492e+02   6.512e+00   1.657e+02
 -4.147e+04   7.151e+01  -3.579e+01  -7.039e+02   7.343e+00   1.663e+02
Element    10
  3.578e+04   1.832e+02  -1.165e+01   6.281e+02   1.126e+01   1.613e+02
  2.345e+04   9.610e+01  -3.426e+01   4.156e+02   1.044e+01   1.619e+02
  1.335e+02  -4.025e+01  -5.122e+01   1.340e+01   8.870e+00   1.629e+02
 -2.311e+04  -1.390e+02  -3.426e+01  -3.882e+02   7.303e+00   1.638e+02
 -3.534e+04  -1.760e+02  -1.165e+01  -5.997e+02   6.477e+00   1.644e+02
Element    11
  2.942e+04   1.306e+02  -5.395e+00   4.197e+02  -5.073e-01   1.513e+02
  1.929e+04   5.885e+01  -2.068e+01   2.625e+02  -2.422e-01   1.515e+02
  1.138e+02  -5.775e+01  -3.215e+01  -3.522e+01   2.601e-01   1.517e+02
 -1.901e+04  -1.490e+02  -2.068e+01  -3.325e+02   7.625e-01   1.519e+02
 -2.907e+04  -1.869e+02  -5.395e+00  -4.892e+02   1.028e+00   1.520e+02
Element    12
  2.343e+04  -1.738e+02   8.433e-01   1.758e+02   6.824e+00   1.489e+02
  1.535e+04  -1.348e+02  -9.011e+00   9.277e+01   5.553e+00   1.494e+02
  5.734e+01  -4.823e+01  -1.640e+01  -6.448e+01   3.143e+00   1.503e+02
 -1.520e+04   5.481e+01  -9.011e+00  -2.216e+02   7.336e-01   1.513e+02
 -2.324e+04   1.158e+02   8.433e-01  -3.044e+02  -5.375e-01   1.518e+02
Element    13
  1.904e+04   1.064e+02   2.373e+00  -2.261e+02  -2.899e+00   1.513e+02
  1.251e+04   5.454e+01  -3.975e+00  -1.573e+02  -1.286e+00   1.503e+02
  1.563e+02  -3.569e+01  -8.736e+00  -2.693e+01   1.773e+00   1.482e+02
 -1.218e+04  -1.154e+02  -3.975e+00   1.033e+02   4.832e+00   1.462e+02
 -1.868e+04  -1.532e+02   2.373e+00   1.720e+02   6.446e+00   1.452e+02
Element    14
  1.346e+04  -1.648e+02  -3.521e+00  -3.317e+02  -3.643e-02   1.401e+02
  8.894e+03  -1.006e+02  -6.705e+00  -2.004e+02  -1.534e-01   1.401e+02
  2.557e+02   2.502e+01  -9.094e+00   4.837e+01  -3.752e-01   1.402e+02
 -8.372e+03   1.560e+02  -6.705e+00   2.970e+02  -5.969e-01   1.402e+02
 -1.292e+04   2.273e+02  -3.521e+00   4.281e+02  -7.139e-01   1.403e+02
Element    15
  7.718e+03  -1.379e+02  -4.665e+00  -4.615e+02   1.384e+01   1.422e+02
  5.127e+03  -8.037e+01  -5.714e+00  -2.928e+02   1.352e+01   1.424e+02
  2.160e+02   3.009e+01  -6.501e+00   2.697e+01   1.291e+01   1.429e+02
 -4.691e+03   1.423e+02  -5.714e+00   3.466e+02   1.230e+01   1.433e+02
 -7.278e+03   2.023e+02  -4.665e+00   5.152e+02   1.198e+01   1.435e+02
Element    16
  2.595e+03  -2.681e+02  -1.434e+00  -5.826e+02  -1.323e+01   1.301e+02
  1.767e+03  -1.748e+02  -1.570e+00  -3.810e+02  -1.327e+01   1.303e+02
  1.976e+02   2.154e+00  -1.672e+00   9.552e-01  -1.334e+01   1.306e+02
 -1.371e+03   1.794e+02  -1.570e+00   3.829e+02  -1.342e+01   1.309e+02
 -2.199e+03   2.730e+02  -1.434e+00   5.844e+02  -1.346e+01   1.310e+02



TIME =   7.000e-01

Nodal Displacements

 Node          U1          U2          U3
    1   0.000e+00   0.000e+00   0.000e+00
    2   5.795e-03   1.846e-03   7.927e-02
    3  -1.608e-02   7.247e-04   3.076e-01
    4  -8.482e-02  -2.651e-03   6.621e-01
    5  -2.095e-01  -1.120e-02   1.118e+00
    6  -2.917e-01  -1.073e-02   1.378e+00
    7  -3.895e-01  -1.084e-02   1.652e+00
    8  -5.010e-01  -1.099e-02   1.940e+00
    9  -6.253e-01  -1.106e-02   2.240e+00
   10  -7.617e-01  -1.109e-02   2.551e+00
   11  -9.097e-01  -1.111e-02   2.872e+00
   12  -1.069e+00  -1.113e-02   3.202e+00
   13  -1.238e+00  -1.109e-02   3.540e+00
   14  -1.602e+00  -1.028e-02   4.231e+00
   15  -1.991e+00  -9.915e-03   4.938e+00
   16  -2.397e+00  -9.671e-03   5.654e+00
   17  -2.811e+00  -9.409e-03   6.374e+00
   18  -2.810e+00  -9.468e-03   6.373e+00
   19  -2.603e+00  -9.676e-03   6.013e+00
   20  -2.397e+00  -9.926e-03   5.653e+00
   21  -2.193e+00  -1.016e-02   5.294e+00
   22  -1.990e+00  -1.031e-02   4.936e+00
   23  -1.601e+00  -1.126e-02   4.229e+00
   24  -1.238e+00  -1.186e-02   3.538e+00
   25  -9.094e-01  -1.222e-02   2.871e+00
   26  -6.237e-01  -1.249e-02   2.238e+00
   27  -3.866e-01  -1.262e-02   1.650e+00
   28  -2.036e-01  -1.211e-02   1.120e+00
   29  -7.810e-02  -9.400e-03   6.665e-01
   30  -8.500e-03  -8.314e-04   3.100e-01
   31   3.329e-03  -1.306e-03   1.751e-01
   32   6.496e-03  -1.581e-03   7.727e-02
   33   4.196e-03  -2.027e-03   1.903e-02
   34   0.000e+00   0.000e+00   0.000e+00
   35   0.000e+00   0.000e+00   0.000e+00
   36  -1.290e-02  -1.857e-03   7.743e-02
   37  -5.132e-02  -1.842e-03   3.012e-01
   38  -1.334e-01  -4.772e-03   6.494e-01
   39  -2.688e-01  -1.300e-02   1.098e+00
   40  -3.551e-01  -1.252e-02   1.355e+00
   41  -4.565e-01  -1.242e-02   1.627e+00
   42  -5.712e-01  -1.235e-02   1.911e+00
   43  -6.983e-01  -1.227e-02   2.208e+00
   44  -8.372e-01  -1.218e-02   2.516e+00
   45  -9.875e-01  -1.207e-02   2.834e+00
   46  -1.149e+00  -1.197e-02   3.162e+00
   47  -1.320e+00  -1.189e-02   3.497e+00
   48  -1.686e+00  -1.097e-02   4.185e+00
   49  -2.077e+00  -1.037e-02   4.890e+00
   50  -2.483e+00  -9.835e-03   5.604e+00
   51  -2.897e+00  -9.342e-03   6.324e+00
   52  -2.896e+00  -9.299e-03   6.323e+00
   53  -2.690e+00  -9.467e-03   5.964e+00
   54  -2.483e+00  -9.589e-03   5.604e+00
   55  -2.279e+00  -9.712e-03   5.246e+00
   56  -2.076e+00  -9.809e-03   4.888e+00
   57  -1.685e+00  -1.063e-02   4.183e+00
   58  -1.319e+00  -1.096e-02   3.496e+00
   59  -9.873e-01  -1.098e-02   2.834e+00
   60  -6.969e-01  -1.086e-02   2.206e+00
   61  -4.537e-01  -1.058e-02   1.624e+00
   62  -2.626e-01  -9.637e-03   1.101e+00
   63  -1.267e-01  -6.538e-03   6.538e-01
   64  -4.420e-02   2.076e-03   3.034e-01
   65  -2.414e-02   1.738e-03   1.712e-01
   66  -1.199e-02   1.583e-03   7.550e-02
   67  -4.794e-03   2.003e-03   1.853e-02
   68   0.000e+00   0.000e+00   0.000e+00

Element Stress

        S11         S22         S33         S12         S23         S13
Element     1
  1.160e+05   1.606e+04  -8.498e+01  -1.357e+03   6.191e+01   2.950e+02
  7.554e+04   1.062e+04  -2.950e+02  -1.005e+03   5.631e+01   2.852e+02
 -5.429e+02   5.697e+02  -4.525e+02  -3.411e+02   4.569e+01   2.667e+02
 -7.590e+04  -9.157e+03  -2.950e+02   3.192e+02   3.507e+01   2.481e+02
 -1.154e+05  -1.416e+04  -8.498e+01   6.659e+02   2.947e+01   2.383e+02
Element     2
  1.067e+05  -2.242e+03  -2.318e+02  -1.183e+03  -8.028e+00   2.354e+02
  6.962e+04  -1.604e+03  -4.393e+02  -8.961e+02  -3.307e+00   2.441e+02
 -1.435e+02  -1.272e+02  -5.950e+02  -3.543e+02   5.643e+00   2.605e+02
 -6.922e+04   1.700e+03  -4.393e+02   1.847e+02   1.459e+01   2.769e+02
 -1.054e+05   2.805e+03  -2.318e+02   4.680e+02   1.931e+01   2.856e+02
Element     3
  9.580e+04  -9.524e+01  -2.438e+01  -7.130e+02  -1.690e+01   2.714e+02
  6.248e+04  -3.019e+02  -1.881e+02  -4.229e+02  -1.683e+01   2.720e+02
 -2.808e+02  -4.853e+02  -3.108e+02   1.251e+02  -1.670e+01   2.730e+02
 -6.249e+04  -3.962e+02  -1.881e+02   6.707e+02  -1.657e+01   2.740e+02
 -9.509e+04  -2.393e+02  -2.438e+01   9.576e+02  -1.650e+01   2.746e+02
Element     4
  8.382e+04  -6.693e+02   6.237e+00   7.068e+02  -6.039e+01   2.250e+02
  5.422e+04  -7.526e+02  -1.237e+02   7.758e+02  -4.179e+01   2.361e+02
 -1.555e+03  -7.447e+02  -2.212e+02   9.061e+02  -6.527e+00   2.572e+02
 -5.690e+04  -5.198e+02  -1.237e+02   1.036e+03   2.873e+01   2.783e+02
 -8.591e+04  -3.137e+02   6.237e+00   1.104e+03   4.733e+01   2.895e+02
Element     5
  7.683e+04  -1.802e+02   4.309e+01   1.207e+03   6.280e+01   2.877e+02
  4.990e+04  -3.908e+02  -6.440e+01   1.012e+03   4.218e+01   2.733e+02
 -8.756e+02  -6.530e+02  -1.450e+02   6.443e+02   3.089e+00   2.459e+02
 -5.129e+04  -7.355e+02  -6.440e+01   2.779e+02  -3.600e+01   2.185e+02
 -7.774e+04  -7.066e+02   4.309e+01   8.520e+01  -5.662e+01   2.041e+02
Element     6
  6.905e+04  -3.500e+02  -6.183e+01   2.205e+02   6.805e+00   2.352e+02
  4.536e+04  -2.420e+02  -1.459e+02  -5.383e+00   5.438e+00   2.339e+02
  6.626e+02   7.021e+01  -2.090e+02  -4.325e+02   2.847e+00   2.313e+02
 -4.376e+04   5.233e+02  -1.459e+02  -8.583e+02   2.553e-01   2.288e+02
 -6.708e+04   8.190e+02  -6.183e+01  -1.082e+03  -1.112e+00   2.274e+02
Element     7
  5.930e+04  -3.506e-01  -8.585e+01   2.268e+02  -3.270e+01   2.225e+02
  3.890e+04   1.024e+02  -1.483e+02  -6.731e+00  -2.839e+01   2.238e+02
  4.011e+02   3.769e+02  -1.951e+02  -4.486e+02  -2.020e+01   2.264e+02
 -3.789e+04   7.559e+02  -1.483e+02  -8.892e+02  -1.202e+01   2.289e+02
 -5.801e+04   9.979e+02  -8.585e+01  -1.121e+03  -7.704e+00   2.303e+02
Element     8
  5.098e+04   1.480e+02  -9.610e+01   7.251e+02  -1.302e+01   1.885e+02
  3.337e+04   1.534e+02  -1.425e+02   4.399e+02  -1.185e+01   1.905e+02
  9.453e+01   2.229e+02  -1.773e+02  -9.961e+01  -9.644e+00   1.942e+02
 -3.302e+04   3.699e+02  -1.425e+02  -6.379e+02  -7.433e+00   1.979e+02
 -5.043e+04   4.786e+02  -9.610e+01  -9.213e+02  -6.266e+00   1.999e+02
Element     9
  4.419e+04   1.526e+02  -3.921e+01   8.455e+02   2.524e+00   1.770e+02
  2.894e+04   1.023e+02  -7.391e+01   5.661e+02   3.534e+00   1.776e+02
  1.183e+02   5.093e+01  -9.992e+01   3.721e+01   5.447e+00   1.788e+02
 -2.859e+04   5.736e+01  -7.391e+01  -4.906e+02   7.361e+00   1.800e+02
 -4.368e+04   8.403e+01  -3.921e+01  -7.685e+02   8.371e+00   1.806e+02
Element    10
  3.760e+04   1.886e+02  -1.277e+01   6.790e+02   1.212e+01   1.729e+02
  2.465e+04   9.686e+01  -3.770e+01   4.490e+02   1.119e+01   1.735e+02
  1.705e+02  -4.534e+01  -5.639e+01   1.357e+01   9.417e+00   1.746e+02
 -2.423e+04  -1.461e+02  -3.770e+01  -4.211e+02   7.646e+00   1.757e+02
 -3.707e+04  -1.826e+02  -1.277e+01  -6.501e+02   6.711e+00   1.763e+02
Element    11
  3.082e+04   1.319e+02  -5.822e+00   4.505e+02  -6.698e-01   1.607e+02
  2.021e+04   5.717e+01  -2.256e+01   2.813e+02  -3.112e-01   1.608e+02
  1.495e+02  -6.316e+01  -3.512e+01  -3.905e+01   3.687e-01   1.610e+02
 -1.986e+04  -1.557e+02  -2.256e+01  -3.589e+02   1.049e+00   1.613e+02
 -3.039e+04  -1.933e+02  -5.822e+00  -5.275e+02   1.407e+00   1.614e+02
Element    12
  2.448e+04  -1.855e+02   8.275e-01   1.885e+02   7.584e+00   1.568e+02
  1.605e+04  -1.442e+02  -9.907e+00   9.918e+01   6.182e+00   1.573e+02
  8.923e+01  -5.210e+01  -1.796e+01  -7.003e+01   3.525e+00   1.584e+02
 -1.584e+04   5.791e+01  -9.907e+00  -2.390e+02   8.667e-01   1.595e+02
 -2.422e+04   1.232e+02   8.275e-01  -3.281e+02  -5.353e-01   1.600e+02
Element    13
  1.987e+04   1.097e+02   2.620e+00  -2.335e+02  -3.385e+00   1.591e+02
  1.307e+04   5.552e+01  -4.268e+00  -1.628e+02  -1.606e+00   1.579e+02
  1.978e+02  -3.853e+01  -9.434e+00  -2.885e+01   1.766e+00   1.557e+02
 -1.265e+04  -1.211e+02  -4.268e+00   1.050e+02   5.139e+00   1.535e+02
 -1.942e+04  -1.601e+02   2.620e+00   1.755e+02   6.918e+00   1.524e+02
Element    14
  1.402e+04  -1.743e+02  -3.827e+00  -3.402e+02   7.923e-02   1.463e+02
  9.280e+03  -1.061e+02  -7.266e+00  -2.044e+02  -5.373e-02   1.463e+02
  3.054e+02   2.750e+01  -9.845e+00   5.284e+01  -3.058e-01   1.464e+02
 -8.658e+03   1.669e+02  -7.266e+00   3.099e+02  -5.578e-01   1.465e+02
 -1.338e+04   2.428e+02  -3.827e+00   4.455e+02  -6.908e-01   1.465e+02
Element    15
  8.037e+03  -1.443e+02  -5.073e+00  -4.768e+02   1.456e+01   1.477e+02
  5.351e+03  -8.366e+01  -6.201e+00  -3.020e+02   1.422e+01   1.479e+02
  2.618e+02   3.271e+01  -7.046e+00   2.920e+01   1.358e+01   1.484e+02
 -4.823e+03   1.510e+02  -6.201e+00   3.603e+02   1.293e+01   1.489e+02
 -7.505e+03   2.142e+02  -5.073e+00   5.349e+02   1.260e+01   1.492e+02
Element    16
  2.723e+03  -2.777e+02  -1.553e+00  -6.035e+02  -1.368e+01   1.347e+02
  1.866e+03  -1.810e+02  -1.699e+00  -3.948e+02  -1.372e+01   1.348e+02
  2.419e+02   2.345e+00  -1.808e+00   9.246e-01  -1.380e+01   1.352e+02
 -1.382e+03   1.860e+02  -1.699e+00   3.966e+02  -1.388e+01   1.355e+02
 -2.238e+03   2.830e+02  -1.553e+00   6.053e+02  -1.392e+01   1.357e+02



TIME =   8.000e-01

Nodal Displacements

 Node          U1          U2          U3
    1   0.000e+00   0.000e+00   0.000e+00
    2   5.950e-03   1.997e-03   8.615e-02
    3  -2.056e-02   7.453e-04   3.333e-01
    4  -1.014e-01  -3.066e-03   7.146e-01
    5  -2.461e-01  -1.270e-02   1.201e+00
    6  -3.410e-01  -1.212e-02   1.478e+00
    7  -4.531e-01  -1.220e-02   1.769e+00
    8  -5.804e-01  -1.231e-02   2.072e+00
    9  -7.216e-01  -1.233e-02   2.388e+00
   10  -8.760e-01  -1.229e-02   2.714e+00
   11  -1.043e+00  -1.224e-02   3.050e+00
   12  -1.222e+00  -1.216e-02   3.395e+00
   13  -1.412e+00  -1.204e-02   3.747e+00
   14  -1.819e+00  -1.099e-02   4.466e+00
   15  -2.253e+00  -1.040e-02   5.199e+00
   16  -2.704e+00  -9.924e-03   5.941e+00
   17  -3.164e+00  -9.430e-03   6.686e+00
   18  -3.163e+00  -9.492e-03   6.685e+00
   19  -2.933e+00  -9.817e-03   6.312e+00
   20  -2.704e+00  -1.019e-02   5.940e+00
   21  -2.477e+00  -1.054e-02   5.568e+00
   22  -2.252e+00  -1.080e-02   5.198e+00
   23  -1.817e+00  -1.201e-02   4.464e+00
   24  -1.411e+00  -1.283e-02   3.745e+00
   25  -1.043e+00  -1.338e-02   3.050e+00
   26  -7.195e-01  -1.381e-02   2.386e+00
   27  -4.496e-01  -1.407e-02   1.766e+00
   28  -2.394e-01  -1.357e-02   1.204e+00
   29  -9.388e-02  -1.055e-02   7.196e-01
   30  -1.195e-02  -8.578e-04   3.361e-01
   31   2.559e-03  -1.396e-03   1.899e-01
   32   6.788e-03  -1.716e-03   8.382e-02
   33   4.517e-03  -2.206e-03   2.064e-02
   34   0.000e+00   0.000e+00   0.000e+00
   35   0.000e+00   0.000e+00   0.000e+00
   36  -1.433e-02  -2.008e-03   8.398e-02
   37  -5.856e-02  -1.984e-03   3.257e-01
   38  -1.535e-01  -5.290e-03   6.999e-01
   39  -3.092e-01  -1.455e-02   1.179e+00
   40  -4.082e-01  -1.397e-02   1.452e+00
   41  -5.239e-01  -1.380e-02   1.740e+00
   42  -6.543e-01  -1.368e-02   2.040e+00
   43  -7.983e-01  -1.354e-02   2.352e+00
   44  -9.552e-01  -1.337e-02   2.675e+00
   45  -1.124e+00  -1.318e-02   3.009e+00
   46  -1.305e+00  -1.300e-02   3.351e+00
   47  -1.497e+00  -1.282e-02   3.700e+00
   48  -1.906e+00  -1.166e-02   4.415e+00
   49  -2.341e+00  -1.083e-02   5.146e+00
   50  -2.794e+00  -1.006e-02   5.886e+00
   51  -3.254e+00  -9.327e-03   6.631e+00
   52  -3.253e+00  -9.285e-03   6.629e+00
   53  -3.023e+00  -9.570e-03   6.257e+00
   54  -2.794e+00  -9.807e-03   5.885e+00
   55  -2.566e+00  -1.004e-02   5.514e+00
   56  -2.341e+00  -1.025e-02   5.144e+00
   57  -1.905e+00  -1.133e-02   4.413e+00
   58  -1.496e+00  -1.186e-02   3.698e+00
   59  -1.124e+00  -1.205e-02   3.008e+00
   60  -7.964e-01  -1.207e-02   2.350e+00
   61  -5.205e-01  -1.188e-02   1.737e+00
   62  -3.022e-01  -1.090e-02   1.182e+00
   63  -1.459e-01  -7.453e-03   7.050e-01
   64  -5.047e-02   2.281e-03   3.284e-01
   65  -2.715e-02   1.902e-03   1.854e-01
   66  -1.323e-02   1.717e-03   8.174e-02
   67  -5.213e-03   2.175e-03   2.005e-02
   68   0.000e+00   0.000e+00   0.000e+00

Element Stress

        S11         S22         S33         S12         S23         S13
Element     1
  1.258e+05   1.749e+04  -9.540e+01  -1.570e+03   7.059e+01   3.368e+02
  8.191e+04   1.158e+04  -3.425e+02  -1.164e+03   6.403e+01   3.254e+02
 -6.378e+02   6.648e+02  -5.278e+02  -3.998e+02   5.160e+01   3.038e+02
 -8.233e+04  -9.862e+03  -3.425e+02   3.597e+02   3.916e+01   2.822e+02
 -1.251e+05  -1.526e+04  -9.540e+01   7.584e+02   3.260e+01   2.708e+02
Element     2
  1.153e+05  -2.524e+03  -2.701e+02  -1.395e+03  -1.011e+01   2.663e+02
  7.521e+04  -1.821e+03  -5.125e+02  -1.048e+03  -4.319e+00   2.766e+02
 -1.799e+02  -1.761e+02  -6.943e+02  -3.927e+02   6.652e+00   2.961e+02
 -7.477e+04   1.878e+03  -5.125e+02   2.591e+02   1.762e+01   3.156e+02
 -1.138e+05   3.127e+03  -2.701e+02   6.015e+02   2.341e+01   3.259e+02
Element     3
  1.029e+05  -1.604e+02  -2.460e+01  -7.861e+02  -1.903e+01   3.072e+02
  6.709e+04  -3.853e+02  -2.136e+02  -4.576e+02  -1.909e+01   3.077e+02
 -3.439e+02  -5.711e+02  -3.553e+02   1.626e+02  -1.922e+01   3.086e+02
 -6.715e+04  -4.421e+02  -2.136e+02   7.799e+02  -1.935e+01   3.095e+02
 -1.021e+05  -2.473e+02  -2.460e+01   1.104e+03  -1.942e+01   3.100e+02
Element     4
  8.939e+04  -7.559e+02   5.230e+00   8.249e+02  -6.853e+01   2.524e+02
  5.777e+04  -8.519e+02  -1.429e+02   8.969e+02  -4.752e+01   2.649e+02
 -1.770e+03  -8.451e+02  -2.540e+02   1.033e+03  -7.691e+00   2.886e+02
 -6.082e+04  -5.910e+02  -1.429e+02   1.168e+03   3.213e+01   3.124e+02
 -9.178e+04  -3.572e+02   5.230e+00   1.239e+03   5.314e+01   3.249e+02
Element     5
  8.161e+04  -2.056e+02   4.966e+01   1.366e+03   7.213e+01   3.221e+02
  5.299e+04  -4.421e+02  -7.170e+01   1.142e+03   4.872e+01   3.056e+02
 -9.562e+02  -7.354e+02  -1.627e+02   7.191e+02   4.323e+00   2.744e+02
 -5.450e+04  -8.258e+02  -7.170e+01   2.978e+02  -4.007e+01   2.432e+02
 -8.258e+04  -7.916e+02   4.966e+01   7.635e+01  -6.349e+01   2.267e+02
Element     6
  7.300e+04  -4.039e+02  -6.977e+01   2.189e+02   7.504e+00   2.605e+02
  4.798e+04  -2.734e+02  -1.636e+02  -3.157e+01   6.053e+00   2.590e+02
  7.863e+02   9.405e+01  -2.340e+02  -5.053e+02   3.303e+00   2.563e+02
 -4.610e+04   6.187e+02  -1.636e+02  -9.774e+02   5.527e-01   2.536e+02
 -7.070e+04   9.588e+02  -6.977e+01  -1.226e+03  -8.981e-01   2.521e+02
Element     7
  6.219e+04  -2.238e+00  -9.656e+01   2.231e+02  -3.777e+01   2.437e+02
  4.082e+04   1.176e+02  -1.651e+02  -2.971e+01  -3.272e+01   2.453e+02
  4.739e+02   4.324e+02  -2.166e+02  -5.079e+02  -2.314e+01   2.484e+02
 -3.964e+04   8.621e+02  -1.651e+02  -9.848e+02  -1.356e+01   2.515e+02
 -6.071e+04   1.135e+03  -9.656e+01  -1.236e+03  -8.503e+00   2.532e+02
Element     8
  5.312e+04   1.569e+02  -1.057e+02   7.841e+02  -1.450e+01   2.032e+02
  3.477e+04   1.650e+02  -1.560e+02   4.752e+02  -1.320e+01   2.055e+02
  1.271e+02   2.446e+02  -1.938e+02  -1.092e+02  -1.072e+01   2.098e+02
 -3.435e+04   4.081e+02  -1.560e+02  -6.921e+02  -8.251e+00   2.140e+02
 -5.247e+04   5.282e+02  -1.057e+02  -9.991e+02  -6.945e+00   2.163e+02
Element     9
  4.583e+04   1.559e+02  -4.147e+01   9.055e+02   2.488e+00   1.887e+02
  3.002e+04   1.037e+02  -7.872e+01   6.060e+02   3.675e+00   1.894e+02
  1.534e+02   5.217e+01  -1.067e+02   3.909e+01   5.927e+00   1.906e+02
 -2.959e+04   6.266e+01  -7.872e+01  -5.266e+02   8.179e+00   1.919e+02
 -4.523e+04   9.319e+01  -4.147e+01  -8.245e+02   9.366e+00   1.925e+02
Element    10
  3.884e+04   1.910e+02  -1.353e+01   7.205e+02   1.278e+01   1.821e+02
  2.548e+04   9.640e+01  -4.009e+01   4.760e+02   1.176e+01   1.827e+02
  2.092e+02  -4.931e+01  -6.000e+01   1.314e+01   9.829e+00   1.839e+02
 -2.497e+04  -1.509e+02  -4.009e+01  -4.489e+02   7.894e+00   1.851e+02
 -3.822e+04  -1.867e+02  -1.353e+01  -6.923e+02   6.874e+00   1.857e+02
Element    11
  3.173e+04   1.314e+02  -6.068e+00   4.756e+02  -8.508e-01   1.677e+02
  2.082e+04   5.522e+01  -2.378e+01   2.968e+02  -3.908e-01   1.678e+02
  1.876e+02  -6.670e+01  -3.707e+01  -4.184e+01   4.812e-01   1.680e+02
 -2.039e+04  -1.592e+02  -2.378e+01  -3.800e+02   1.353e+00   1.682e+02
 -3.122e+04  -1.961e+02  -6.068e+00  -5.581e+02   1.813e+00   1.683e+02
Element    12
  2.515e+04  -1.940e+02   7.671e-01   1.999e+02   8.204e+00   1.623e+02
  1.650e+04  -1.507e+02  -1.053e+01   1.054e+02   6.707e+00   1.629e+02
  1.255e+02  -5.436e+01  -1.901e+01  -7.350e+01   3.870e+00   1.640e+02
 -1.621e+04   6.091e+01  -1.053e+01  -2.522e+02   1.033e+00   1.651e+02
 -2.481e+04   1.293e+02   7.671e-01  -3.464e+02  -4.630e-01   1.657e+02
Element    13
  2.038e+04   1.117e+02   2.800e+00  -2.363e+02  -3.766e+00   1.643e+02
  1.342e+04   5.609e+01  -4.422e+00  -1.650e+02  -1.868e+00   1.631e+02
  2.405e+02  -4.018e+01  -9.839e+00  -2.985e+01   1.731e+00   1.608e+02
 -1.292e+04  -1.245e+02  -4.422e+00   1.051e+02   5.330e+00   1.585e+02
 -1.985e+04  -1.641e+02   2.800e+00   1.763e+02   7.229e+00   1.572e+02
Element    14
  1.436e+04  -1.816e+02  -4.022e+00  -3.437e+02   1.963e-01   1.502e+02
  9.519e+03  -1.104e+02  -7.610e+00  -2.057e+02   5.097e-02   1.502e+02
  3.530e+02   2.922e+01  -1.030e+01   5.575e+01  -2.246e-01   1.503e+02
 -8.801e+03   1.749e+02  -7.610e+00   3.171e+02  -5.001e-01   1.504e+02
 -1.363e+04   2.541e+02  -4.022e+00   4.548e+02  -6.455e-01   1.504e+02
Element    15
  8.228e+03  -1.488e+02  -5.332e+00  -4.847e+02   1.502e+01   1.508e+02
  5.491e+03  -8.609e+01  -6.502e+00  -3.067e+02   1.468e+01   1.510e+02
  3.068e+02   3.439e+01  -7.380e+00   3.053e+01   1.403e+01   1.516e+02
 -4.874e+03   1.568e+02  -6.502e+00   3.677e+02   1.338e+01   1.521e+02
 -7.605e+03   2.222e+02  -5.332e+00   5.455e+02   1.303e+01   1.524e+02
Element    16
  2.810e+03  -2.828e+02  -1.627e+00  -6.146e+02  -1.391e+01   1.370e+02
  1.939e+03  -1.843e+02  -1.778e+00  -4.021e+02  -1.395e+01   1.372e+02
  2.860e+02   2.477e+00  -1.892e+00   8.315e-01  -1.403e+01   1.375e+02
 -1.366e+03   1.896e+02  -1.778e+00   4.037e+02  -1.411e+01   1.379e+02
 -2.237e+03   2.884e+02  -1.627e+00   6.162e+02  -1.415e+01   1.381e+02



TIME =   9.000e-01

Nodal Displacements

 Node          U1          U2          U3
    1   0.000e+00   0.000e+00   0.000e+00
    2   6.045e-03   2.136e-03   9.244e-02
    3  -2.505e-02   7.649e-04   3.566e-01
    4  -1.175e-01  -3.435e-03   7.616e-01
    5  -2.813e-01  -1.402e-02   1.275e+00
    6  -3.880e-01  -1.333e-02   1.566e+00
    7  -5.135e-01  -1.337e-02   1.871e+00
    8  -6.551e-01  -1.345e-02   2.187e+00
    9  -8.117e-01  -1.340e-02   2.516e+00
   10  -9.825e-01  -1.329e-02   2.855e+00
   11  -1.167e+00  -1.314e-02   3.203e+00
   12  -1.363e+00  -1.298e-02   3.559e+00
   13  -1.572e+00  -1.275e-02   3.923e+00
   14  -2.017e+00  -1.146e-02   4.663e+00
   15  -2.489e+00  -1.063e-02   5.416e+00
   16  -2.980e+00  -9.914e-03   6.176e+00
   17  -3.479e+00  -9.172e-03   6.940e+00
   18  -3.478e+00  -9.237e-03   6.938e+00
   19  -3.229e+00  -9.686e-03   6.556e+00
   20  -2.980e+00  -1.018e-02   6.175e+00
   21  -2.733e+00  -1.066e-02   5.794e+00
   22  -2.488e+00  -1.104e-02   5.414e+00
   23  -2.014e+00  -1.250e-02   4.660e+00
   24  -1.571e+00  -1.356e-02   3.920e+00
   25  -1.166e+00  -1.432e-02   3.202e+00
   26  -8.092e-01  -1.493e-02   2.514e+00
   27  -5.093e-01  -1.532e-02   1.867e+00
   28  -2.739e-01  -1.485e-02   1.278e+00
   29  -1.094e-01  -1.158e-02   7.673e-01
   30  -1.551e-02  -8.779e-04   3.599e-01
   31   1.696e-03  -1.475e-03   2.035e-01
   32   7.019e-03  -1.839e-03   8.981e-02
   33   4.806e-03  -2.371e-03   2.209e-02
   34   0.000e+00   0.000e+00   0.000e+00
   35   0.000e+00   0.000e+00   0.000e+00
   36  -1.568e-02  -2.143e-03   8.995e-02
   37  -6.553e-02  -2.103e-03   3.480e-01
   38  -1.726e-01  -5.737e-03   7.450e-01
   39  -3.476e-01  -1.591e-02   1.250e+00
   40  -4.585e-01  -1.522e-02   1.537e+00
   41  -5.874e-01  -1.499e-02   1.838e+00
   42  -7.321e-01  -1.480e-02   2.151e+00
   43  -8.914e-01  -1.459e-02   2.476e+00
   44  -1.065e+00  -1.433e-02   2.812e+00
   45  -1.251e+00  -1.405e-02   3.157e+00
   46  -1.449e+00  -1.378e-02   3.511e+00
   47  -1.659e+00  -1.350e-02   3.871e+00
   48  -2.106e+00  -1.211e-02   4.607e+00
   49  -2.580e+00  -1.103e-02   5.357e+00
   50  -3.071e+00  -1.001e-02   6.116e+00
   51  -3.571e+00  -9.033e-03   6.880e+00
   52  -3.570e+00  -8.994e-03   6.878e+00
   53  -3.320e+00  -9.403e-03   6.497e+00
   54  -3.071e+00  -9.762e-03   6.115e+00
   55  -2.824e+00  -1.012e-02   5.735e+00
   56  -2.579e+00  -1.045e-02   5.355e+00
   57  -2.104e+00  -1.177e-02   4.604e+00
   58  -1.658e+00  -1.253e-02   3.869e+00
   59  -1.250e+00  -1.291e-02   3.156e+00
   60  -8.891e-01  -1.308e-02   2.474e+00
   61  -5.834e-01  -1.300e-02   1.835e+00
   62  -3.399e-01  -1.201e-02   1.253e+00
   63  -1.644e-01  -8.266e-03   7.507e-01
   64  -5.655e-02   2.469e-03   3.510e-01
   65  -3.004e-02   2.051e-03   1.983e-01
   66  -1.440e-02   1.837e-03   8.742e-02
   67  -5.597e-03   2.332e-03   2.142e-02
   68   0.000e+00   0.000e+00   0.000e+00

Element Stress

        S11         S22         S33         S12         S23         S13
Element     1
  1.348e+05   1.880e+04  -1.043e+02  -1.778e+03   7.898e+01   3.782e+02
  8.772e+04   1.245e+04  -3.879e+02  -1.320e+03   7.150e+01   3.653e+02
 -7.309e+02   7.562e+02  -6.005e+02  -4.570e+02   5.730e+01   3.408e+02
 -8.820e+04  -1.050e+04  -3.879e+02   4.004e+02   4.311e+01   3.163e+02
 -1.340e+05  -1.626e+04  -1.043e+02   8.504e+02   3.562e+01   3.034e+02
Element     2
  1.231e+05  -2.803e+03  -3.070e+02  -1.601e+03  -1.235e+01   2.969e+02
  8.024e+04  -2.038e+03  -5.831e+02  -1.193e+03  -5.464e+00   3.088e+02
 -2.188e+02  -2.313e+02  -7.902e+02  -4.236e+02   7.598e+00   3.314e+02
 -7.976e+04   2.042e+03  -5.831e+02   3.418e+02   2.066e+01   3.540e+02
 -1.214e+05   3.429e+03  -3.070e+02   7.437e+02   2.755e+01   3.660e+02
Element     3
  1.092e+05  -2.271e+02  -2.374e+01  -8.538e+02  -2.096e+01   3.425e+02
  7.116e+04  -4.682e+02  -2.365e+02  -4.880e+02  -2.121e+01   3.428e+02
 -4.083e+02  -6.545e+02  -3.961e+02   2.027e+02  -2.168e+01   3.435e+02
 -7.127e+04  -4.863e+02  -2.365e+02   8.899e+02  -2.215e+01   3.442e+02
 -1.084e+05  -2.547e+02  -2.374e+01   1.251e+03  -2.240e+01   3.445e+02
Element     4
  9.417e+04  -8.360e+02   3.681e+00   9.310e+02  -7.588e+01   2.791e+02
  6.082e+04  -9.428e+02  -1.610e+02   1.006e+03  -5.272e+01   2.929e+02
 -1.966e+03  -9.353e+02  -2.845e+02   1.148e+03  -8.827e+00   3.189e+02
 -6.421e+04  -6.527e+02  -1.610e+02   1.289e+03   3.507e+01   3.449e+02
 -9.682e+04  -3.929e+02   3.681e+00   1.362e+03   5.822e+01   3.587e+02
Element     5
  8.564e+04  -2.266e+02   5.583e+01   1.510e+03   8.072e+01   3.548e+02
  5.560e+04  -4.863e+02  -7.787e+01   1.258e+03   5.477e+01   3.365e+02
 -1.017e+03  -8.078e+02  -1.781e+02   7.826e+02   5.592e+00   3.017e+02
 -5.719e+04  -9.055e+02  -7.787e+01   3.091e+02  -4.359e+01   2.669e+02
 -8.664e+04  -8.669e+02   5.583e+01   6.020e+01  -6.953e+01   2.486e+02
Element     6
  7.622e+04  -4.554e+02  -7.685e+01   2.161e+02   8.007e+00   2.842e+02
  5.012e+04  -3.019e+02  -1.790e+02  -5.760e+01   6.516e+00   2.827e+02
  9.085e+02   1.198e+02  -2.556e+02  -5.751e+02   3.690e+00   2.798e+02
 -4.797e+04   7.128e+02  -1.790e+02  -1.091e+03   8.638e-01   2.770e+02
 -7.361e+04   1.095e+03  -7.685e+01  -1.362e+03  -6.270e-01   2.755e+02
Element     7
  6.443e+04  -6.668e+00  -1.060e+02   2.219e+02  -4.265e+01   2.630e+02
  4.231e+04   1.301e+02  -1.795e+02  -4.880e+01  -3.688e+01   2.649e+02
  5.452e+02   4.834e+02  -2.346e+02  -5.609e+02  -2.596e+01   2.686e+02
 -4.097e+04   9.598e+02  -1.795e+02  -1.071e+03  -1.503e+01   2.723e+02
 -6.277e+04   1.261e+03  -1.060e+02  -1.340e+03  -9.264e+00   2.742e+02
Element     8
  5.467e+04   1.615e+02  -1.135e+02   8.387e+02  -1.580e+01   2.162e+02
  3.580e+04   1.727e+02  -1.667e+02   5.084e+02  -1.437e+01   2.187e+02
  1.627e+02   2.616e+02  -2.067e+02  -1.167e+02  -1.167e+01   2.234e+02
 -3.530e+04   4.395e+02  -1.667e+02  -7.402e+02  -8.966e+00   2.282e+02
 -5.393e+04   5.692e+02  -1.135e+02  -1.068e+03  -7.541e+00   2.307e+02
Element     9
  4.696e+04   1.563e+02  -4.276e+01   9.564e+02   2.429e+00   1.986e+02
  3.077e+04   1.031e+02  -8.182e+01   6.396e+02   3.794e+00   1.993e+02
  1.910e+02   5.199e+01  -1.111e+02   4.003e+01   6.383e+00   2.006e+02
 -3.026e+04   6.589e+01  -8.182e+01  -5.582e+02   8.972e+00   2.019e+02
 -4.627e+04   9.944e+01  -4.276e+01  -8.733e+02   1.034e+01   2.026e+02
Element    10
  3.964e+04   1.915e+02  -1.401e+01   7.543e+02   1.329e+01   1.894e+02
  2.602e+04   9.519e+01  -4.163e+01   4.978e+02   1.220e+01   1.901e+02
  2.492e+02  -5.229e+01  -6.234e+01   1.227e+01   1.014e+01   1.913e+02
 -2.542e+04  -1.539e+02  -4.163e+01  -4.724e+02   8.075e+00   1.925e+02
 -3.893e+04  -1.890e+02  -1.401e+01  -7.277e+02   6.988e+00   1.932e+02
Element    11
  3.229e+04   1.298e+02  -6.173e+00   4.962e+02  -1.046e+00   1.728e+02
  2.120e+04   5.323e+01  -2.447e+01   3.096e+02  -4.795e-01   1.729e+02
  2.274e+02  -6.875e+01  -3.820e+01  -4.379e+01   5.953e-01   1.731e+02
 -2.068e+04  -1.603e+02  -2.447e+01  -3.966e+02   1.670e+00   1.733e+02
 -3.169e+04  -1.964e+02  -6.173e+00  -5.826e+02   2.237e+00   1.734e+02
Element    12
  2.554e+04  -1.999e+02   6.729e-01   2.101e+02   8.706e+00   1.661e+02
  1.676e+04  -1.551e+02  -1.094e+01   1.115e+02   7.144e+00   1.667e+02
  1.649e+02  -5.534e+01  -1.965e+01  -7.534e+01   4.184e+00   1.678e+02
 -1.639e+04   6.382e+01  -1.094e+01  -2.619e+02   1.224e+00   1.689e+02
 -2.512e+04   1.345e+02   6.729e-01  -3.603e+02  -3.379e-01   1.695e+02
Element    13
  2.066e+04   1.127e+02   2.925e+00  -2.358e+02  -4.061e+00   1.676e+02
  1.362e+04   5.638e+01  -4.469e+00  -1.647e+02  -2.079e+00   1.664e+02
  2.839e+02  -4.091e+01  -1.001e+01  -3.016e+01   1.678e+00   1.640e+02
 -1.303e+04  -1.259e+02  -4.469e+00   1.043e+02   5.434e+00   1.616e+02
 -2.004e+04  -1.658e+02   2.925e+00   1.751e+02   7.416e+00   1.604e+02
Element    14
  1.453e+04  -1.871e+02  -4.129e+00  -3.437e+02   3.103e-01   1.523e+02
  9.649e+03  -1.137e+02  -7.784e+00  -2.051e+02   1.559e-01   1.524e+02
  3.988e+02   3.032e+01  -1.053e+01   5.744e+01  -1.367e-01   1.524e+02
 -8.839e+03   1.804e+02  -7.784e+00   3.198e+02  -4.294e-01   1.525e+02
 -1.371e+04   2.621e+02  -4.129e+00   4.582e+02  -5.838e-01   1.526e+02
Element    15
  8.325e+03  -1.521e+02  -5.472e+00  -4.873e+02   1.530e+01   1.521e+02
  5.570e+03  -8.788e+01  -6.658e+00  -3.082e+02   1.496e+01   1.524e+02
  3.510e+02   3.531e+01  -7.548e+00   3.117e+01   1.432e+01   1.529e+02
 -4.864e+03   1.605e+02  -6.658e+00   3.704e+02   1.368e+01   1.535e+02
 -7.613e+03   2.274e+02  -5.472e+00   5.494e+02   1.334e+01   1.538e+02
Element    16
  2.868e+03  -2.845e+02  -1.667e+00  -6.186e+02  -1.398e+01   1.378e+02
  1.991e+03  -1.855e+02  -1.820e+00  -4.047e+02  -1.402e+01   1.380e+02
  3.297e+02   2.564e+00  -1.935e+00   6.869e-01  -1.409e+01   1.383e+02
 -1.331e+03   1.909e+02  -1.820e+00   4.061e+02  -1.417e+01   1.387e+02
 -2.207e+03   2.903e+02  -1.667e+00   6.199e+02  -1.421e+01   1.388e+02



TIME =   1.000e+00

Nodal Displacements

 Node          U1          U2          U3
    1   0.000e+00   0.000e+00   0.000e+00
    2   6.091e-03   2.262e-03   9.826e-02
    3  -2.954e-02   7.851e-04   3.779e-01
    4  -1.333e-01  -3.761e-03   8.043e-01
    5  -3.151e-01  -1.519e-02   1.342e+00
    6  -4.329e-01  -1.439e-02   1.645e+00
    7  -5.707e-01  -1.439e-02   1.961e+00
    8  -7.256e-01  -1.441e-02   2.289e+00
    9  -8.962e-01  -1.430e-02   2.628e+00
   10  -1.082e+00  -1.410e-02   2.977e+00
   11  -1.281e+00  -1.387e-02   3.335e+00
   12  -1.494e+00  -1.360e-02   3.701e+00
   13  -1.718e+00  -1.326e-02   4.073e+00
   14  -2.196e+00  -1.174e-02   4.829e+00
   15  -2.703e+00  -1.067e-02   5.597e+00
   16  -3.228e+00  -9.696e-03   6.372e+00
   17  -3.761e+00  -8.700e-03   7.150e+00
   18  -3.760e+00  -8.767e-03   7.148e+00
   19  -3.493e+00  -9.343e-03   6.759e+00
   20  -3.227e+00  -9.964e-03   6.371e+00
   21  -2.963e+00  -1.057e-02   5.983e+00
   22  -2.701e+00  -1.107e-02   5.595e+00
   23  -2.194e+00  -1.279e-02   4.826e+00
   24  -1.717e+00  -1.408e-02   4.070e+00
   25  -1.280e+00  -1.505e-02   3.333e+00
   26  -8.931e-01  -1.585e-02   2.625e+00
   27  -5.659e-01  -1.639e-02   1.957e+00
   28  -3.071e-01  -1.597e-02   1.345e+00
   29  -1.245e-01  -1.249e-02   8.105e-01
   30  -1.915e-02  -8.931e-04   3.816e-01
   31   7.615e-04  -1.543e-03   2.160e-01
   32   7.201e-03  -1.952e-03   9.532e-02
   33   5.069e-03  -2.524e-03   2.343e-02
   34   0.000e+00   0.000e+00   0.000e+00
   35   0.000e+00   0.000e+00   0.000e+00
   36  -1.696e-02  -2.267e-03   9.546e-02
   37  -7.224e-02  -2.202e-03   3.683e-01
   38  -1.911e-01  -6.123e-03   7.858e-01
   39  -3.842e-01  -1.709e-02   1.314e+00
   40  -5.061e-01  -1.630e-02   1.613e+00
   41  -6.473e-01  -1.600e-02   1.925e+00
   42  -8.051e-01  -1.574e-02   2.249e+00
   43  -9.784e-01  -1.545e-02   2.585e+00
   44  -1.166e+00  -1.511e-02   2.930e+00
   45  -1.367e+00  -1.474e-02   3.285e+00
   46  -1.582e+00  -1.436e-02   3.648e+00
   47  -1.808e+00  -1.398e-02   4.017e+00
   48  -2.288e+00  -1.235e-02   4.770e+00
   49  -2.795e+00  -1.103e-02   5.535e+00
   50  -3.321e+00  -9.759e-03   6.309e+00
   51  -3.855e+00  -8.525e-03   7.086e+00
   52  -3.853e+00  -8.488e-03   7.084e+00
   53  -3.586e+00  -9.024e-03   6.695e+00
   54  -3.320e+00  -9.510e-03   6.307e+00
   55  -3.056e+00  -9.994e-03   5.919e+00
   56  -2.794e+00  -1.045e-02   5.533e+00
   57  -2.285e+00  -1.202e-02   4.767e+00
   58  -1.806e+00  -1.300e-02   4.015e+00
   59  -1.366e+00  -1.358e-02   3.283e+00
   60  -9.756e-01  -1.392e-02   2.582e+00
   61  -6.427e-01  -1.395e-02   1.921e+00
   62  -3.759e-01  -1.298e-02   1.317e+00
   63  -1.822e-01  -8.985e-03   7.921e-01
   64  -6.247e-02   2.642e-03   3.717e-01
   65  -3.282e-02   2.190e-03   2.101e-01
   66  -1.550e-02   1.947e-03   9.264e-02
   67  -5.950e-03   2.477e-03   2.268e-02
   68   0.000e+00   0.000e+00   0.000e+00

Element Stress

        S11         S22         S33         S12         S23         S13
Element     1
  1.430e+05   2.001e+04  -1.119e+02  -1.983e+03   8.709e+01   4.194e+02
  9.307e+04   1.326e+04  -4.312e+02  -1.473e+03   7.871e+01   4.050e+02
 -8.221e+02   8.439e+02  -6.707e+02  -5.126e+02   6.282e+01   3.777e+02
 -9.361e+04  -1.108e+04  -4.312e+02   4.413e+02   4.693e+01   3.504e+02
 -1.421e+05  -1.716e+04  -1.119e+02   9.416e+02   3.855e+01   3.360e+02
Element     2
  1.301e+05  -3.081e+03  -3.425e+02  -1.800e+03  -1.475e+01   3.274e+02
  8.480e+04  -2.255e+03  -6.512e+02  -1.332e+03  -6.730e+00   3.409e+02
 -2.598e+02  -2.921e+02  -8.828e+02  -4.478e+02   8.476e+00   3.666e+02
 -8.430e+04   2.193e+03  -6.512e+02   4.310e+02   2.368e+01   3.923e+02
 -1.282e+05   3.714e+03  -3.425e+02   8.924e+02   3.170e+01   4.058e+02
Element     3
  1.148e+05  -2.939e+02  -2.191e+01  -9.171e+02  -2.272e+01   3.771e+02
  7.477e+04  -5.497e+02  -2.571e+02  -5.148e+02  -2.318e+01   3.773e+02
 -4.733e+02  -7.353e+02  -4.335e+02   2.447e+02  -2.406e+01   3.777e+02
 -7.493e+04  -5.288e+02  -2.571e+02   1.000e+03  -2.495e+01   3.780e+02
 -1.139e+05  -2.620e+02  -2.191e+01   1.397e+03  -2.541e+01   3.782e+02
Element     4
  9.832e+04  -9.102e+02   1.647e+00   1.025e+03  -8.252e+01   3.052e+02
  6.347e+04  -1.026e+03  -1.781e+02   1.104e+03  -5.745e+01   3.200e+02
 -2.142e+03  -1.016e+03  -3.130e+02   1.252e+03  -9.929e+00   3.481e+02
 -6.715e+04  -7.058e+02  -1.781e+02   1.399e+03   3.759e+01   3.761e+02
 -1.012e+05  -4.211e+02   1.647e+00   1.477e+03   6.266e+01   3.909e+02
Element     5
  8.907e+04  -2.438e+02   6.163e+01   1.640e+03   8.859e+01   3.859e+02
  5.782e+04  -5.243e+02  -8.302e+01   1.361e+03   6.037e+01   3.659e+02
 -1.059e+03  -8.710e+02  -1.915e+02   8.359e+02   6.873e+00   3.279e+02
 -5.945e+04  -9.755e+02  -8.302e+01   3.130e+02  -4.662e+01   2.899e+02
 -9.007e+04  -9.331e+02   6.163e+01   3.821e+01  -7.485e+01   2.699e+02
Element     6
  7.887e+04  -5.042e+02  -8.318e+01   2.124e+02   8.323e+00   3.064e+02
  5.189e+04  -3.276e+02  -1.923e+02  -8.314e+01   6.832e+00   3.049e+02
  1.029e+03   1.470e+02  -2.742e+02  -6.418e+02   4.004e+00   3.020e+02
 -4.947e+04   8.048e+02  -1.923e+02  -1.199e+03   1.177e+00   2.992e+02
 -7.596e+04   1.225e+03  -8.318e+01  -1.491e+03  -3.146e-01   2.977e+02
Element     7
  6.616e+04  -1.317e+01  -1.143e+02   2.236e+02  -4.732e+01   2.807e+02
  4.346e+04   1.402e+02  -1.917e+02  -6.401e+01  -4.087e+01   2.830e+02
  6.148e+02   5.301e+02  -2.497e+02  -6.079e+02  -2.865e+01   2.872e+02
 -4.197e+04   1.050e+03  -1.917e+02  -1.150e+03  -1.643e+01   2.914e+02
 -6.433e+04   1.376e+03  -1.143e+02  -1.436e+03  -9.984e+00   2.937e+02
Element     8
  5.578e+04   1.625e+02  -1.196e+02   8.897e+02  -1.691e+01   2.276e+02
  3.654e+04   1.769e+02  -1.750e+02   5.397e+02  -1.538e+01   2.303e+02
  2.005e+02   2.748e+02  -2.165e+02  -1.225e+02  -1.248e+01   2.355e+02
 -3.595e+04   4.651e+02  -1.750e+02  -7.830e+02  -9.583e+00   2.407e+02
 -5.495e+04   6.028e+02  -1.196e+02  -1.131e+03  -8.054e+00   2.434e+02
Element     9
  4.770e+04   1.546e+02  -4.329e+01   9.997e+02   2.350e+00   2.071e+02
  3.127e+04   1.010e+02  -8.353e+01   6.680e+02   3.893e+00   2.078e+02
  2.305e+02   5.072e+01  -1.137e+02   4.021e+01   6.819e+00   2.091e+02
 -3.067e+04   6.744e+01  -8.353e+01  -5.862e+02   9.744e+00   2.103e+02
 -4.692e+04   1.033e+02  -4.329e+01  -9.161e+02   1.129e+01   2.110e+02
Element    10
  4.011e+04   1.905e+02  -1.428e+01   7.820e+02   1.366e+01   1.952e+02
  2.634e+04   9.352e+01  -4.250e+01   5.155e+02   1.252e+01   1.959e+02
  2.901e+02  -5.445e+01  -6.366e+01   1.107e+01   1.037e+01   1.971e+02
 -2.566e+04  -1.555e+02  -4.250e+01  -4.925e+02   8.207e+00   1.984e+02
 -3.931e+04  -1.899e+02  -1.428e+01  -7.577e+02   7.069e+00   1.991e+02
Element    11
  3.257e+04   1.275e+02  -6.170e+00   5.132e+02  -1.254e+00   1.765e+02
  2.140e+04   5.130e+01  -2.475e+01   3.203e+02  -5.758e-01   1.766e+02
  2.686e+02  -6.961e+01  -3.869e+01  -4.505e+01   7.095e-01   1.768e+02
 -2.080e+04  -1.597e+02  -2.475e+01  -4.098e+02   1.995e+00   1.769e+02
 -3.189e+04  -1.947e+02  -6.170e+00  -6.020e+02   2.673e+00   1.770e+02
Element    12
  2.570e+04  -2.039e+02   5.543e-01   2.194e+02   9.112e+00   1.684e+02
  1.689e+04  -1.577e+02  -1.118e+01   1.173e+02   7.508e+00   1.690e+02
  2.068e+02  -5.536e+01  -1.998e+01  -7.592e+01   4.468e+00   1.701e+02
 -1.644e+04   6.664e+01  -1.118e+01  -2.689e+02   1.428e+00   1.713e+02
 -2.520e+04   1.389e+02   5.543e-01  -3.707e+02  -1.751e-01   1.719e+02
Element    13
  2.077e+04   1.129e+02   3.007e+00  -2.328e+02  -4.287e+00   1.695e+02
  1.370e+04   5.650e+01  -4.432e+00  -1.627e+02  -2.249e+00   1.682e+02
  3.277e+02  -4.093e+01  -1.001e+01  -2.995e+01   1.613e+00   1.658e+02
 -1.302e+04  -1.260e+02  -4.432e+00   1.027e+02   5.474e+00   1.634e+02
 -2.006e+04  -1.659e+02   3.007e+00   1.726e+02   7.512e+00   1.622e+02
Element    14
  1.458e+04  -1.913e+02  -4.169e+00  -3.411e+02   4.184e-01   1.531e+02
  9.698e+03  -1.162e+02  -7.829e+00  -2.032e+02   2.581e-01   1.532e+02
  4.430e+02   3.091e+01  -1.057e+01   5.815e+01  -4.585e-02   1.533e+02
 -8.800e+03   1.842e+02  -7.829e+00   3.193e+02  -3.498e-01   1.534e+02
 -1.367e+04   2.675e+02  -4.169e+00   4.570e+02  -5.101e-01   1.535e+02
Element    15
  8.353e+03  -1.542e+02  -5.519e+00  -4.860e+02   1.542e+01   1.522e+02
  5.603e+03  -8.918e+01  -6.702e+00  -3.073e+02   1.510e+01   1.525e+02
  3.945e+02   3.566e+01  -7.588e+00   3.128e+01   1.449e+01   1.530e+02
 -4.810e+03   1.625e+02  -6.702e+00   3.698e+02   1.387e+01   1.536e+02
 -7.555e+03   2.302e+02  -5.519e+00   5.483e+02   1.355e+01   1.539e+02
Element    16
  2.903e+03  -2.839e+02  -1.682e+00  -6.173e+02  -1.393e+01   1.374e+02
  2.029e+03  -1.850e+02  -1.834e+00  -4.039e+02  -1.397e+01   1.376e+02
  3.730e+02   2.621e+00  -1.948e+00   5.004e-01  -1.404e+01   1.379e+02
 -1.283e+03   1.905e+02  -1.834e+00   4.049e+02  -1.411e+01   1.382e+02
 -2.156e+03   2.898e+02  -1.682e+00   6.182e+02  -1.414e+01   1.384e+02

		 *** Successful end of program ***
