

TIME =   1.000e-01

Nodal Displacements

 Node          U1          U2          U3
    1   0.000e+00   0.000e+00   0.000e+00
    2   1.231e-03   6.742e-04   8.053e-03
    3   2.112e-03   4.895e-04   3.270e-02
    4   2.010e-03   4.830e-04   7.362e-02
    5   6.669e-04   4.396e-04   1.294e-01
    6  -2.154e-03   4.039e-04   1.990e-01
    7  -6.598e-03   3.666e-04   2.811e-01
    8  -1.275e-02   3.298e-04   3.746e-01
    9  -2.061e-02   2.929e-04   4.782e-01
   10  -3.015e-02   2.562e-04   5.909e-01
   11  -4.128e-02   2.195e-04   7.114e-01
   12  -5.385e-02   1.828e-04   8.387e-01
   13  -6.770e-02   1.463e-04   9.715e-01
   14  -8.263e-02   1.096e-04   1.109e+00
   15  -9.841e-02   7.372e-05   1.249e+00
   16  -1.148e-01   3.424e-05   1.392e+00
   17  -1.315e-01   1.223e-05   1.536e+00
   18   0.000e+00   0.000e+00   0.000e+00
   19   1.231e-03  -6.742e-04   8.053e-03
   20   2.112e-03  -4.895e-04   3.270e-02
   21   2.010e-03  -4.830e-04   7.362e-02
   22   6.669e-04  -4.396e-04   1.294e-01
   23  -2.154e-03  -4.039e-04   1.990e-01
   24  -6.598e-03  -3.666e-04   2.811e-01
   25  -1.275e-02  -3.298e-04   3.746e-01
   26  -2.061e-02  -2.929e-04   4.782e-01
   27  -3.015e-02  -2.562e-04   5.909e-01
   28  -4.128e-02  -2.195e-04   7.114e-01
   29  -5.385e-02  -1.828e-04   8.387e-01
   30  -6.770e-02  -1.463e-04   9.715e-01
   31  -8.263e-02  -1.096e-04   1.109e+00
   32  -9.841e-02  -7.372e-05   1.249e+00
   33  -1.148e-01  -3.424e-05   1.392e+00
   34  -1.315e-01  -1.223e-05   1.536e+00
   35   0.000e+00   0.000e+00   0.000e+00
   36  -1.336e-03  -6.758e-04   8.011e-03
   37  -3.186e-03  -4.906e-04   3.255e-02
   38  -5.757e-03  -4.839e-04   7.331e-02
   39  -9.392e-03  -4.403e-04   1.289e-01
   40  -1.431e-02  -4.044e-04   1.983e-01
   41  -2.067e-02  -3.670e-04   2.801e-01
   42  -2.854e-02  -3.300e-04   3.733e-01
   43  -3.794e-02  -2.930e-04   4.767e-01
   44  -4.883e-02  -2.561e-04   5.891e-01
   45  -6.112e-02  -2.193e-04   7.094e-01
   46  -7.468e-02  -1.826e-04   8.365e-01
   47  -8.934e-02  -1.459e-04   9.691e-01
   48  -1.049e-01  -1.092e-04   1.106e+00
   49  -1.211e-01  -7.328e-05   1.247e+00
   50  -1.378e-01  -3.378e-05   1.389e+00
   51  -1.546e-01  -1.177e-05   1.533e+00
   52   0.000e+00   0.000e+00   0.000e+00
   53  -1.336e-03   6.758e-04   8.011e-03
   54  -3.186e-03   4.906e-04   3.255e-02
   55  -5.757e-03   4.839e-04   7.331e-02
   56  -9.392e-03   4.403e-04   1.289e-01
   57  -1.431e-02   4.044e-04   1.983e-01
   58  -2.067e-02   3.670e-04   2.801e-01
   59  -2.854e-02   3.300e-04   3.733e-01
   60  -3.794e-02   2.930e-04   4.767e-01
   61  -4.883e-02   2.561e-04   5.891e-01
   62  -6.112e-02   2.193e-04   7.094e-01
   63  -7.468e-02   1.826e-04   8.365e-01
   64  -8.934e-02   1.459e-04   9.691e-01
   65  -1.049e-01   1.092e-04   1.106e+00
   66  -1.211e-01   7.328e-05   1.247e+00
   67  -1.378e-01   3.378e-05   1.389e+00
   68  -1.546e-01   1.177e-05   1.533e+00

Element Stress

        S11         S22         S33         S12         S23         S13
Element     1
  4.886e+04   3.066e+04   2.596e+04  -7.414e-11  -1.104e-11   4.016e+01
  1.868e+04   6.776e+03   3.696e+03  -4.813e-11  -7.262e-12   4.009e+01
 -1.301e+04  -1.299e+04  -1.300e+04   1.143e-12  -9.843e-14   3.995e+01
 -1.129e+04   6.324e+02   3.696e+03   5.038e-11   7.066e-12   3.980e+01
  3.078e+03   2.128e+04   2.596e+04   7.633e-11   1.084e-11   3.973e+01
Element     2
  5.547e+04   3.313e+04   3.407e+04  -1.381e-10   1.028e-11   4.002e+01
  1.885e+04   4.241e+03   4.855e+03  -8.984e-11   6.692e-12   4.001e+01
 -1.706e+04  -1.704e+04  -1.706e+04   1.683e-12  -1.052e-13   4.000e+01
 -9.140e+03   5.501e+03   4.855e+03   9.315e-11  -6.902e-12   3.999e+01
  1.270e+04   3.505e+04   3.407e+04   1.414e-10  -1.049e-11   3.998e+01
Element     3
  4.690e+04   2.722e+04   2.700e+04  -1.447e-10  -2.370e-11   3.987e+01
  1.687e+04   3.995e+03   3.845e+03  -9.390e-11  -1.478e-11   3.989e+01
 -1.352e+04  -1.351e+04  -1.352e+04   2.306e-12   2.126e-12   3.992e+01
 -9.172e+03   3.722e+03   3.845e+03   9.844e-11   1.903e-11   3.995e+01
  7.120e+03   2.681e+04   2.700e+04   1.491e-10   2.795e-11   3.997e+01
Element     4
  4.198e+04   2.354e+04   2.357e+04  -1.480e-10  -2.306e-11   3.986e+01
  1.541e+04   3.345e+03   3.357e+03  -9.666e-11  -1.648e-11   3.986e+01
 -1.180e+04  -1.179e+04  -1.180e+04   5.776e-13  -4.007e-12   3.985e+01
 -8.683e+03   3.392e+03   3.357e+03   9.775e-11   8.463e-12   3.984e+01
  5.178e+03   2.362e+04   2.357e+04   1.490e-10   1.504e-11   3.984e+01
Element     5
  3.674e+04   1.984e+04   1.982e+04  -1.055e-10  -1.495e-10   3.973e+01
  1.390e+04   2.841e+03   2.823e+03  -7.101e-11  -1.184e-10   3.974e+01
 -9.923e+03  -9.915e+03  -9.924e+03  -5.720e-12  -5.945e-11   3.976e+01
 -8.242e+03   2.824e+03   2.823e+03   5.953e-11  -5.109e-13   3.978e+01
  2.920e+03   1.982e+04   1.982e+04   9.393e-11   3.058e-11   3.979e+01
Element     6
  3.194e+04   1.652e+04   1.651e+04  -6.621e-11  -4.164e-11   3.966e+01
  1.245e+04   2.360e+03   2.351e+03  -4.815e-11  -5.755e-11   3.966e+01
 -8.263e+03  -8.258e+03  -8.265e+03  -1.392e-11  -8.771e-11   3.966e+01
 -7.740e+03   2.359e+03   2.351e+03   2.030e-11  -1.179e-10   3.966e+01
  1.094e+03   1.651e+04   1.651e+04   3.835e-11  -1.338e-10   3.966e+01
Element     7
  2.743e+04   1.349e+04   1.348e+04  -5.608e-11  -2.457e-11   3.954e+01
  1.105e+04   1.929e+03   1.921e+03  -3.990e-11  -4.055e-11   3.955e+01
 -6.748e+03  -6.746e+03  -6.751e+03  -9.230e-12  -7.085e-11   3.956e+01
 -7.199e+03   1.926e+03   1.921e+03   2.144e-11  -1.012e-10   3.957e+01
 -4.474e+02   1.349e+04   1.348e+04   3.762e-11  -1.171e-10   3.957e+01
Element     8
  2.325e+04   1.078e+04   1.077e+04  -2.718e-11  -6.378e-11   3.945e+01
  9.700e+03   1.541e+03   1.535e+03  -1.981e-11  -4.734e-11   3.945e+01
 -5.390e+03  -5.390e+03  -5.395e+03  -5.840e-12  -1.620e-11   3.945e+01
 -6.616e+03   1.539e+03   1.535e+03   8.116e-12   1.495e-11   3.945e+01
 -1.677e+03   1.078e+04   1.077e+04   1.547e-11   3.138e-11   3.946e+01
Element     9
  1.937e+04   8.380e+03   8.374e+03   2.742e-11   2.374e-10   3.934e+01
  8.392e+03   1.198e+03   1.193e+03   1.838e-11   1.433e-10   3.934e+01
 -4.187e+03  -4.189e+03  -4.193e+03   1.291e-12  -3.503e-11   3.935e+01
 -5.992e+03   1.196e+03   1.193e+03  -1.576e-11  -2.134e-10   3.935e+01
 -2.602e+03   8.378e+03   8.374e+03  -2.474e-11  -3.074e-10   3.936e+01
Element    10
  1.580e+04   6.284e+03   6.280e+03   2.586e-11   3.298e-11   3.925e+01
  7.131e+03   8.980e+02   8.946e+02   4.936e-12   4.323e-12   3.925e+01
 -3.138e+03  -3.142e+03  -3.145e+03  -3.471e-11  -5.000e-11   3.925e+01
 -5.325e+03   8.973e+02   8.946e+02  -7.432e-11  -1.043e-10   3.926e+01
 -3.224e+03   6.283e+03   6.280e+03  -9.521e-11  -1.330e-10   3.926e+01
Element    11
  1.254e+04   4.493e+03   4.490e+03   1.220e-11   2.417e-10   3.916e+01
  5.914e+03   6.420e+02   6.396e+02   1.097e-11   1.786e-10   3.916e+01
 -2.241e+03  -2.246e+03  -2.248e+03   8.659e-12   5.886e-11   3.917e+01
 -4.618e+03   6.415e+02   6.396e+02   6.369e-12  -6.084e-11   3.917e+01
 -3.544e+03   4.492e+03   4.490e+03   5.170e-12  -1.240e-10   3.917e+01
Element    12
  9.589e+03   3.004e+03   3.002e+03   9.911e-12   5.611e-11   3.908e+01
  4.742e+03   4.291e+02   4.277e+02   8.021e-12   5.573e-11   3.909e+01
 -1.495e+03  -1.502e+03  -1.503e+03   4.430e-12   5.502e-11   3.909e+01
 -3.870e+03   4.291e+02   4.277e+02   8.269e-13   5.430e-11   3.909e+01
 -3.566e+03   3.004e+03   3.002e+03  -1.078e-12   5.392e-11   3.909e+01
Element    13
  6.936e+03   1.816e+03   1.814e+03   3.342e-11   1.285e-10   3.902e+01
  3.615e+03   2.598e+02   2.584e+02   1.828e-11   9.957e-11   3.902e+01
 -8.997e+02  -9.074e+02  -9.082e+02  -1.042e-11   4.466e-11   3.903e+01
 -3.080e+03   2.587e+02   2.584e+02  -3.910e-11  -1.026e-11   3.903e+01
 -3.290e+03   1.814e+03   1.814e+03  -5.422e-11  -3.922e-11   3.903e+01
Element    14
  4.587e+03   9.230e+02   9.266e+02   4.052e-11   2.414e-10   3.897e+01
  2.531e+03   1.298e+02   1.320e+02   4.087e-11   1.776e-10   3.897e+01
 -4.551e+02  -4.636e+02  -4.639e+02   4.156e-11   5.655e-11   3.898e+01
 -2.249e+03   1.351e+02   1.320e+02   4.225e-11  -6.447e-11   3.898e+01
 -2.715e+03   9.312e+02   9.266e+02   4.261e-11  -1.283e-10   3.898e+01
Element    15
  2.527e+03   3.479e+02   3.281e+02  -1.151e-10  -5.582e-10   3.894e+01
  1.489e+03   5.974e+01   4.674e+01  -1.037e-10  -4.976e-10   3.894e+01
 -1.552e+02  -1.641e+02  -1.642e+02  -8.201e-11  -3.828e-10   3.894e+01
 -1.378e+03   3.404e+01   4.674e+01  -6.038e-11  -2.680e-10   3.894e+01
 -1.853e+03   3.086e+02   3.281e+02  -4.898e-11  -2.074e-10   3.894e+01
Element    16
  7.844e+02  -4.989e+01   4.533e+01  -2.553e-10  -6.274e-10   3.893e+01
  4.935e+02  -5.587e+01   6.471e+00  -2.112e-10  -5.707e-10   3.893e+01
 -1.349e+01  -2.268e+01  -2.267e+01  -1.278e-10  -4.631e-10   3.893e+01
 -4.621e+02   6.881e+01   6.471e+00  -4.438e-11  -3.555e-10   3.893e+01
 -6.753e+02   1.406e+02   4.533e+01  -3.715e-13  -2.988e-10   3.893e+01



TIME =   2.000e-01

Nodal Displacements

 Node          U1          U2          U3
    1   0.000e+00   0.000e+00   0.000e+00
    2   2.269e-03   1.289e-03   1.548e-02
    3   3.094e-03   9.307e-04   6.276e-02
    4   5.448e-04   9.180e-04   1.411e-01
    5  -6.372e-03   8.331e-04   2.475e-01
    6  -1.847e-02   7.637e-04   3.798e-01
    7  -3.626e-02   6.917e-04   5.353e-01
    8  -5.998e-02   6.207e-04   7.118e-01
    9  -8.964e-02   5.502e-04   9.068e-01
   10  -1.251e-01   4.802e-04   1.118e+00
   11  -1.659e-01   4.107e-04   1.343e+00
   12  -2.116e-01   3.417e-04   1.581e+00
   13  -2.617e-01   2.731e-04   1.828e+00
   14  -3.153e-01   2.045e-04   2.082e+00
   15  -3.717e-01   1.376e-04   2.343e+00
   16  -4.300e-01   6.410e-05   2.607e+00
   17  -4.894e-01   2.317e-05   2.873e+00
   18   0.000e+00   0.000e+00   0.000e+00
   19   2.269e-03  -1.289e-03   1.548e-02
   20   3.094e-03  -9.307e-04   6.276e-02
   21   5.448e-04  -9.180e-04   1.411e-01
   22  -6.372e-03  -8.331e-04   2.475e-01
   23  -1.847e-02  -7.637e-04   3.798e-01
   24  -3.626e-02  -6.917e-04   5.353e-01
   25  -5.998e-02  -6.207e-04   7.118e-01
   26  -8.964e-02  -5.502e-04   9.068e-01
   27  -1.251e-01  -4.802e-04   1.118e+00
   28  -1.659e-01  -4.107e-04   1.343e+00
   29  -2.116e-01  -3.417e-04   1.581e+00
   30  -2.617e-01  -2.731e-04   1.828e+00
   31  -3.153e-01  -2.045e-04   2.082e+00
   32  -3.717e-01  -1.376e-04   2.343e+00
   33  -4.300e-01  -6.410e-05   2.607e+00
   34  -4.894e-01  -2.317e-05   2.873e+00
   35   0.000e+00   0.000e+00   0.000e+00
   36  -2.654e-03  -1.295e-03   1.533e-02
   37  -7.038e-03  -9.346e-04   6.223e-02
   38  -1.427e-02  -9.214e-04   1.399e-01
   39  -2.550e-02  -8.356e-04   2.457e-01
   40  -4.152e-02  -7.656e-04   3.771e-01
   41  -6.284e-02  -6.928e-04   5.317e-01
   42  -8.971e-02  -6.213e-04   7.073e-01
   43  -1.222e-01  -5.503e-04   9.014e-01
   44  -1.600e-01  -4.799e-04   1.112e+00
   45  -2.029e-01  -4.100e-04   1.336e+00
   46  -2.504e-01  -3.406e-04   1.573e+00
   47  -3.018e-01  -2.718e-04   1.819e+00
   48  -3.565e-01  -2.030e-04   2.073e+00
   49  -4.137e-01  -1.360e-04   2.334e+00
   50  -4.725e-01  -6.241e-05   2.598e+00
   51  -5.320e-01  -2.145e-05   2.864e+00
   52   0.000e+00   0.000e+00   0.000e+00
   53  -2.654e-03   1.295e-03   1.533e-02
   54  -7.038e-03   9.346e-04   6.223e-02
   55  -1.427e-02   9.214e-04   1.399e-01
   56  -2.550e-02   8.356e-04   2.457e-01
   57  -4.152e-02   7.656e-04   3.771e-01
   58  -6.284e-02   6.928e-04   5.317e-01
   59  -8.971e-02   6.213e-04   7.073e-01
   60  -1.222e-01   5.503e-04   9.014e-01
   61  -1.600e-01   4.799e-04   1.112e+00
   62  -2.029e-01   4.100e-04   1.336e+00
   63  -2.504e-01   3.406e-04   1.573e+00
   64  -3.018e-01   2.718e-04   1.819e+00
   65  -3.565e-01   2.030e-04   2.073e+00
   66  -4.137e-01   1.360e-04   2.334e+00
   67  -4.725e-01   6.241e-05   2.598e+00
   68  -5.320e-01   2.145e-05   2.864e+00

Element Stress

        S11         S22         S33         S12         S23         S13
Element     1
  1.394e+05   1.045e+05   9.547e+04   3.078e-10   7.815e-12   8.043e+01
  4.235e+04   1.954e+04   1.359e+04   2.019e-10   3.000e-12   8.015e+01
 -4.784e+04  -4.779e+04  -4.782e+04   1.451e-12  -6.128e-12   7.962e+01
 -1.516e+04   7.710e+03   1.359e+04  -1.987e-10  -1.526e-11   7.909e+01
  5.159e+04   8.647e+04   9.547e+04  -3.041e-10  -2.007e-11   7.881e+01
Element     2
  1.653e+05   1.227e+05   1.244e+05   5.001e-10  -1.117e-11   8.008e+01
  4.449e+04   1.659e+04   1.772e+04   3.261e-10  -9.126e-12   8.005e+01
 -6.230e+04  -6.223e+04  -6.228e+04  -3.512e-12  -5.252e-12   8.000e+01
 -9.022e+03   1.897e+04   1.772e+04  -3.327e-10  -1.378e-12   7.994e+01
  8.357e+04   1.263e+05   1.244e+05  -5.062e-10   6.662e-13   7.992e+01
Element     3
  1.360e+05   9.854e+04   9.804e+04   3.090e-10   4.944e-11   7.922e+01
  3.882e+04   1.430e+04   1.396e+04   2.012e-10   3.200e-11   7.929e+01
 -4.910e+04  -4.905e+04  -4.909e+04  -2.838e-12  -1.056e-12   7.942e+01
 -1.086e+04   1.372e+04   1.396e+04  -2.066e-10  -3.411e-11   7.955e+01
  6.014e+04   9.765e+04   9.804e+04  -3.140e-10  -5.155e-11   7.961e+01
Element     4
  1.202e+05   8.518e+04   8.518e+04   1.306e-10  -4.396e-11   7.895e+01
  3.506e+04   1.215e+04   1.213e+04   8.540e-11  -4.502e-11   7.893e+01
 -4.265e+04  -4.261e+04  -4.265e+04  -2.360e-13  -4.703e-11   7.890e+01
 -1.076e+04   1.221e+04   1.213e+04  -8.577e-11  -4.905e-11   7.887e+01
  5.022e+04   8.527e+04   8.518e+04  -1.309e-10  -5.011e-11   7.885e+01
Element     5
  1.034e+05   7.133e+04   7.125e+04   4.488e-11   1.313e-10   7.815e+01
  3.117e+04   1.021e+04   1.015e+04   2.391e-11   9.734e-11   7.818e+01
 -3.567e+04  -3.564e+04  -3.568e+04  -1.576e-11   3.294e-11   7.825e+01
 -1.083e+04   1.015e+04   1.015e+04  -5.535e-11  -3.146e-11   7.831e+01
  3.921e+04   7.124e+04   7.125e+04  -7.620e-11  -6.543e-11   7.834e+01
Element     6
  8.824e+04   5.908e+04   5.903e+04   6.390e-11   1.518e-10   7.753e+01
  2.753e+04   8.449e+03   8.408e+03   5.409e-11   1.012e-10   7.753e+01
 -2.955e+04  -2.953e+04  -2.956e+04   3.556e-11   5.192e-12   7.754e+01
 -1.067e+04   8.426e+03   8.408e+03   1.714e-11  -9.077e-11   7.754e+01
  2.989e+04   5.904e+04   5.903e+04   7.461e-12  -1.414e-10   7.754e+01
Element     7
  7.430e+04   4.801e+04   4.796e+04  -6.112e-11  -1.936e-10   7.674e+01
  2.408e+04   6.866e+03   6.832e+03  -5.814e-11  -1.654e-10   7.676e+01
 -2.400e+04  -2.400e+04  -2.402e+04  -5.253e-11  -1.120e-10   7.679e+01
 -1.036e+04   6.845e+03   6.832e+03  -4.695e-11  -5.852e-11   7.683e+01
  2.170e+04   4.797e+04   4.796e+04  -4.402e-11  -3.033e-11   7.685e+01
Element     8
  6.162e+04   3.817e+04   3.814e+04   2.931e-11   4.379e-10   7.603e+01
  2.081e+04   5.458e+03   5.433e+03   4.395e-11   3.680e-10   7.604e+01
 -1.908e+04  -1.908e+04  -1.910e+04   7.173e-11   2.355e-10   7.605e+01
 -9.893e+03   5.445e+03   5.433e+03   9.957e-11   1.029e-10   7.606e+01
  1.472e+04   3.815e+04   3.814e+04   1.143e-10   3.298e-11   7.607e+01
Element     9
  5.016e+04   2.952e+04   2.950e+04  -1.304e-11   2.741e-10   7.530e+01
  1.773e+04   4.221e+03   4.202e+03   9.997e-13   2.046e-10   7.531e+01
 -1.475e+04  -1.476e+04  -1.477e+04   2.766e-11   7.271e-11   7.533e+01
 -9.271e+03   4.212e+03   4.202e+03   5.438e-11  -5.916e-11   7.535e+01
  8.913e+03   2.951e+04   2.950e+04   6.850e-11  -1.287e-10   7.536e+01
Element    10
  3.988e+04   2.204e+04   2.203e+04  -1.690e-10  -1.501e-10   7.464e+01
  1.483e+04   3.151e+03   3.138e+03  -1.104e-10  -3.869e-11   7.464e+01
 -1.100e+04  -1.102e+04  -1.103e+04   3.330e-13   1.725e-10   7.465e+01
 -8.498e+03   3.146e+03   3.138e+03   1.108e-10   3.837e-10   7.467e+01
  4.244e+03   2.204e+04   2.203e+04   1.690e-10   4.950e-10   7.467e+01
Element    11
  3.076e+04   1.570e+04   1.569e+04  -5.319e-11  -3.029e-10   7.402e+01
  1.211e+04   2.244e+03   2.235e+03  -3.221e-11  -1.771e-10   7.403e+01
 -7.828e+03  -7.848e+03  -7.855e+03   7.476e-12   6.147e-11   7.404e+01
 -7.578e+03   2.241e+03   2.235e+03   4.706e-11   3.000e-10   7.406e+01
  6.862e+02   1.569e+04   1.569e+04   6.789e-11   4.259e-10   7.406e+01
Element    12
  2.276e+04   1.046e+04   1.046e+04   2.127e-11  -2.053e-10   7.350e+01
  9.557e+03   1.495e+03   1.489e+03   4.571e-11  -2.126e-10   7.350e+01
 -5.205e+03  -5.230e+03  -5.235e+03   9.203e-11  -2.265e-10   7.351e+01
 -6.514e+03   1.494e+03   1.489e+03   1.383e-10  -2.404e-10   7.352e+01
 -1.785e+03   1.046e+04   1.046e+04   1.627e-10  -2.477e-10   7.353e+01
Element    13
  1.586e+04   6.304e+03   6.299e+03  -1.143e-10  -3.284e-10   7.306e+01
  7.168e+03   9.015e+02   8.973e+02  -1.465e-10  -3.234e-10   7.306e+01
 -3.123e+03  -3.151e+03  -3.154e+03  -2.075e-10  -3.140e-10   7.307e+01
 -5.308e+03   8.993e+02   8.973e+02  -2.684e-10  -3.045e-10   7.308e+01
 -3.195e+03   6.301e+03   6.299e+03  -3.005e-10  -2.996e-10   7.308e+01
Element    14
  1.004e+04   3.205e+03   3.211e+03  -5.925e-10  -1.152e-09   7.273e+01
  4.940e+03   4.539e+02   4.575e+02  -5.754e-10  -1.159e-09   7.273e+01
 -1.575e+03  -1.607e+03  -1.608e+03  -5.431e-10  -1.173e-09   7.273e+01
 -3.958e+03   4.641e+02   4.575e+02  -5.109e-10  -1.186e-09   7.274e+01
 -3.551e+03   3.221e+03   3.211e+03  -4.938e-10  -1.193e-09   7.274e+01
Element    15
  5.243e+03   1.172e+03   1.135e+03  -2.727e-10  -4.501e-11   7.250e+01
  2.863e+03   1.860e+02   1.618e+02  -2.643e-10  -1.816e-10   7.250e+01
 -5.349e+02  -5.680e+02  -5.685e+02  -2.484e-10  -4.405e-10   7.251e+01
 -2.471e+03   1.385e+02   1.618e+02  -2.325e-10  -6.994e-10   7.251e+01
 -2.904e+03   1.100e+03   1.135e+03  -2.240e-10  -8.360e-10   7.251e+01
Element    16
  1.548e+03  -2.036e+01   1.568e+02  -5.435e-10  -9.548e-10   7.239e+01
  9.449e+02  -9.358e+01   2.238e+01  -3.751e-10  -6.218e-10   7.239e+01
 -4.442e+01  -7.842e+01  -7.841e+01  -5.593e-11   9.535e-12   7.239e+01
 -8.321e+02   1.383e+02   2.238e+01   2.632e-10   6.409e-10   7.239e+01
 -1.166e+03   3.339e+02   1.568e+02   4.315e-10   9.739e-10   7.239e+01



TIME =   3.000e-01

Nodal Displacements

 Node          U1          U2          U3
    1   0.000e+00   0.000e+00   0.000e+00
    2   3.101e-03   1.821e-03   2.200e-02
    3   3.199e-03   1.304e-03   8.897e-02
    4  -3.281e-03   1.286e-03   1.994e-01
    5  -1.831e-02   1.162e-03   3.491e-01
    6  -4.340e-02   1.062e-03   5.341e-01
    7  -7.945e-02   9.582e-04   7.508e-01
    8  -1.268e-01   8.571e-04   9.954e-01
    9  -1.855e-01   7.573e-04   1.264e+00
   10  -2.550e-01   6.590e-04   1.555e+00
   11  -3.346e-01   5.622e-04   1.863e+00
   12  -4.232e-01   4.666e-04   2.186e+00
   13  -5.198e-01   3.723e-04   2.522e+00
   14  -6.229e-01   2.785e-04   2.867e+00
   15  -7.310e-01   1.873e-04   3.220e+00
   16  -8.425e-01   8.753e-05   3.577e+00
   17  -9.560e-01   3.200e-05   3.936e+00
   18   0.000e+00   0.000e+00   0.000e+00
   19   3.101e-03  -1.821e-03   2.200e-02
   20   3.199e-03  -1.304e-03   8.897e-02
   21  -3.281e-03  -1.286e-03   1.994e-01
   22  -1.831e-02  -1.162e-03   3.491e-01
   23  -4.340e-02  -1.062e-03   5.341e-01
   24  -7.945e-02  -9.582e-04   7.508e-01
   25  -1.268e-01  -8.571e-04   9.954e-01
   26  -1.855e-01  -7.573e-04   1.264e+00
   27  -2.550e-01  -6.590e-04   1.555e+00
   28  -3.346e-01  -5.622e-04   1.863e+00
   29  -4.232e-01  -4.666e-04   2.186e+00
   30  -5.198e-01  -3.723e-04   2.522e+00
   31  -6.229e-01  -2.785e-04   2.867e+00
   32  -7.310e-01  -1.873e-04   3.220e+00
   33  -8.425e-01  -8.753e-05   3.577e+00
   34  -9.560e-01  -3.200e-05   3.936e+00
   35   0.000e+00   0.000e+00   0.000e+00
   36  -3.875e-03  -1.833e-03   2.169e-02
   37  -1.110e-02  -1.312e-03   8.791e-02
   38  -2.411e-02  -1.292e-03   1.972e-01
   39  -4.509e-02  -1.167e-03   3.454e-01
   40  -7.553e-02  -1.065e-03   5.288e-01
   41  -1.163e-01  -9.603e-04   7.437e-01
   42  -1.679e-01  -8.581e-04   9.866e-01
   43  -2.302e-01  -7.572e-04   1.254e+00
   44  -3.029e-01  -6.581e-04   1.543e+00
   45  -3.851e-01  -5.606e-04   1.849e+00
   46  -4.760e-01  -4.645e-04   2.171e+00
   47  -5.743e-01  -3.696e-04   2.506e+00
   48  -6.787e-01  -2.755e-04   2.850e+00
   49  -7.878e-01  -1.841e-04   3.202e+00
   50  -8.999e-01  -8.412e-05   3.559e+00
   51  -1.014e+00  -2.852e-05   3.918e+00
   52   0.000e+00   0.000e+00   0.000e+00
   53  -3.875e-03   1.833e-03   2.169e-02
   54  -1.110e-02   1.312e-03   8.791e-02
   55  -2.411e-02   1.292e-03   1.972e-01
   56  -4.509e-02   1.167e-03   3.454e-01
   57  -7.553e-02   1.065e-03   5.288e-01
   58  -1.163e-01   9.603e-04   7.437e-01
   59  -1.679e-01   8.581e-04   9.866e-01
   60  -2.302e-01   7.572e-04   1.254e+00
   61  -3.029e-01   6.581e-04   1.543e+00
   62  -3.851e-01   5.606e-04   1.849e+00
   63  -4.760e-01   4.645e-04   2.171e+00
   64  -5.743e-01   3.696e-04   2.506e+00
   65  -6.787e-01   2.755e-04   2.850e+00
   66  -7.878e-01   1.841e-04   3.202e+00
   67  -8.999e-01   8.412e-05   3.559e+00
   68  -1.014e+00   2.852e-05   3.918e+00

Element Stress

        S11         S22         S33         S12         S23         S13
Element     1
  2.541e+05   2.047e+05   1.918e+05  -7.301e-10   2.435e-12   1.206e+02
  6.809e+04   3.579e+04   2.730e+04  -4.780e-10   4.842e-12   1.200e+02
 -9.609e+04  -9.599e+04  -9.605e+04  -8.970e-13   9.406e-12   1.189e+02
 -1.347e+04   1.894e+04   2.730e+04   4.751e-10   1.397e-11   1.178e+02
  1.295e+05   1.790e+05   1.918e+05   7.258e-10   1.638e-11   1.173e+02
Element     2
  3.051e+05   2.450e+05   2.474e+05  -8.557e-10   2.877e-11   1.201e+02
  7.301e+04   3.371e+04   3.524e+04  -5.580e-10   2.502e-11   1.201e+02
 -1.239e+05  -1.237e+05  -1.238e+05   5.499e-12   1.791e-11   1.200e+02
 -2.487e+03   3.701e+04   3.524e+04   5.680e-10   1.081e-11   1.199e+02
  1.898e+05   2.500e+05   2.474e+05   8.643e-10   7.061e-12   1.198e+02
Element     3
  2.469e+05   1.943e+05   1.934e+05  -7.194e-11   2.377e-11   1.179e+02
  6.252e+04   2.811e+04   2.755e+04  -4.533e-11   2.428e-11   1.180e+02
 -9.688e+04  -9.678e+04  -9.687e+04   5.074e-12   2.524e-11   1.183e+02
 -7.348e+03   2.719e+04   2.755e+04   5.541e-11   2.620e-11   1.185e+02
  1.402e+05   1.929e+05   1.934e+05   8.195e-11   2.671e-11   1.187e+02
Element     4
  2.161e+05   1.670e+05   1.670e+05   2.397e-10   1.317e-10   1.168e+02
  5.592e+04   2.385e+04   2.379e+04   1.627e-10   1.102e-10   1.168e+02
 -8.360e+04  -8.353e+04  -8.360e+04   1.687e-11   6.954e-11   1.167e+02
 -8.281e+03   2.388e+04   2.379e+04  -1.286e-10   2.887e-11   1.167e+02
  1.180e+05   1.671e+05   1.670e+05  -2.052e-10   7.409e-12   1.166e+02
Element     5
  1.834e+05   1.388e+05   1.386e+05   2.912e-10  -1.240e-11   1.146e+02
  4.909e+04   1.987e+04   1.974e+04   1.929e-10  -2.413e-11   1.147e+02
 -6.938e+04  -6.933e+04  -6.939e+04   6.872e-12  -4.639e-11   1.148e+02
 -9.526e+03   1.974e+04   1.974e+04  -1.789e-10  -6.864e-11   1.149e+02
  9.389e+04   1.386e+05   1.386e+05  -2.768e-10  -8.038e-11   1.150e+02
Element     6
  1.546e+05   1.141e+05   1.140e+05   9.687e-11  -1.596e-10   1.127e+02
  4.283e+04   1.632e+04   1.623e+04   4.229e-11  -1.436e-10   1.127e+02
 -5.704e+04  -5.701e+04  -5.706e+04  -6.107e-11  -1.135e-10   1.127e+02
 -1.028e+04   1.626e+04   1.623e+04  -1.643e-10  -8.327e-11   1.127e+02
  7.347e+04   1.140e+05   1.140e+05  -2.187e-10  -6.734e-11   1.127e+02
Element     7
  1.284e+05   9.200e+04   9.191e+04   4.136e-11   1.837e-11   1.105e+02
  3.699e+04   1.316e+04   1.309e+04   4.141e-11   1.838e-11   1.105e+02
 -4.599e+04  -4.598e+04  -4.602e+04   4.141e-11   1.839e-11   1.106e+02
 -1.070e+04   1.311e+04   1.309e+04   4.128e-11   1.840e-11   1.107e+02
  5.556e+04   9.192e+04   9.191e+04   4.116e-11   1.841e-11   1.107e+02
Element     8
  1.050e+05   7.262e+04   7.256e+04   1.939e-12  -1.846e-10   1.084e+02
  3.157e+04   1.039e+04   1.034e+04  -6.438e-11  -1.709e-10   1.084e+02
 -3.629e+04  -3.630e+04  -3.633e+04  -1.901e-10  -1.449e-10   1.085e+02
 -1.079e+04   1.035e+04   1.034e+04  -3.159e-10  -1.189e-10   1.085e+02
  4.027e+04   7.257e+04   7.256e+04  -3.823e-10  -1.052e-10   1.085e+02
Element     9
  8.418e+04   5.579e+04   5.575e+04   4.942e-11  -1.936e-10   1.063e+02
  2.656e+04   7.979e+03   7.941e+03   4.789e-11  -1.919e-10   1.064e+02
 -2.787e+04  -2.789e+04  -2.791e+04   4.498e-11  -1.888e-10   1.064e+02
 -1.056e+04   7.957e+03   7.941e+03   4.205e-11  -1.857e-10   1.064e+02
  2.746e+04   5.576e+04   5.575e+04   4.049e-11  -1.841e-10   1.065e+02
Element    10
  6.586e+04   4.140e+04   4.137e+04  -7.049e-11  -2.211e-10   1.045e+02
  2.194e+04   5.920e+03   5.893e+03  -1.015e-10  -2.122e-10   1.045e+02
 -2.066e+04  -2.070e+04  -2.071e+04  -1.602e-10  -1.955e-10   1.045e+02
 -1.004e+04   5.907e+03   5.893e+03  -2.189e-10  -1.788e-10   1.045e+02
  1.702e+04   4.138e+04   4.137e+04  -2.499e-10  -1.700e-10   1.045e+02
Element    11
  4.993e+04   2.932e+04   2.930e+04   6.774e-10   6.059e-10   1.028e+02
  1.769e+04   4.192e+03   4.174e+03   5.042e-10   4.681e-10   1.028e+02
 -1.461e+04  -1.466e+04  -1.467e+04   1.762e-10   2.069e-10   1.028e+02
 -9.218e+03   4.185e+03   4.174e+03  -1.511e-10  -5.434e-11   1.028e+02
  8.820e+03   2.931e+04   2.930e+04  -3.235e-10  -1.921e-10   1.028e+02
Element    12
  3.624e+04   1.945e+04   1.944e+04  -5.110e-11   3.804e-10   1.013e+02
  1.379e+04   2.779e+03   2.769e+03  -9.399e-11   2.639e-10   1.013e+02
 -9.670e+03  -9.723e+03  -9.732e+03  -1.751e-10   4.299e-11   1.013e+02
 -8.123e+03   2.777e+03   2.769e+03  -2.560e-10  -1.779e-10   1.013e+02
  2.770e+03   1.944e+04   1.944e+04  -2.985e-10  -2.945e-10   1.013e+02
Element    13
  2.470e+04   1.167e+04   1.166e+04  -7.125e-12  -5.601e-10   1.001e+02
  1.022e+04   1.669e+03   1.662e+03   5.396e-11  -4.348e-10   1.001e+02
 -5.776e+03  -5.836e+03  -5.841e+03   1.697e-10  -1.974e-10   1.001e+02
 -6.760e+03   1.666e+03   1.662e+03   2.853e-10   4.007e-11   1.001e+02
 -1.232e+03   1.167e+04   1.166e+04   3.462e-10   1.653e-10   1.001e+02
Element    14
  1.523e+04   5.921e+03   5.929e+03  -2.087e-10  -4.306e-10   9.914e+01
  6.958e+03   8.403e+02   8.446e+02  -1.757e-10  -4.664e-10   9.915e+01
 -2.902e+03  -2.966e+03  -2.969e+03  -1.133e-10  -5.343e-10   9.916e+01
 -5.133e+03   8.546e+02   8.446e+02  -5.100e-11  -6.022e-10   9.917e+01
 -3.236e+03   5.943e+03   5.929e+03  -1.820e-11  -6.380e-10   9.917e+01
Element    15
  7.691e+03   2.142e+03   2.092e+03  -1.897e-10  -4.318e-10   9.852e+01
  3.987e+03   3.310e+02   2.981e+02  -2.903e-10  -5.184e-10   9.852e+01
 -9.794e+02  -1.047e+03  -1.047e+03  -4.809e-10  -6.824e-10   9.853e+01
 -3.253e+03   2.670e+02   2.981e+02  -6.714e-10  -8.465e-10   9.853e+01
 -3.368e+03   2.044e+03   2.092e+03  -7.718e-10  -9.330e-10   9.854e+01
Element    16
  2.199e+03   4.816e+01   2.885e+02  -3.134e-10  -5.037e-10   9.820e+01
  1.315e+03  -1.162e+02   4.119e+01  -2.893e-10  -5.221e-10   9.820e+01
 -7.549e+01  -1.443e+02  -1.443e+02  -2.438e-10  -5.571e-10   9.820e+01
 -1.095e+03   1.986e+02   4.119e+01  -1.982e-10  -5.921e-10   9.821e+01
 -1.484e+03   5.289e+02   2.885e+02  -1.742e-10  -6.106e-10   9.821e+01



TIME =   4.000e-01

Nodal Displacements

 Node          U1          U2          U3
    1   0.000e+00   0.000e+00   0.000e+00
    2   3.760e-03   2.274e-03   2.762e-02
    3   2.734e-03   1.613e-03   1.114e-01
    4  -8.412e-03   1.589e-03   2.491e-01
    5  -3.265e-02   1.430e-03   4.347e-01
    6  -7.220e-02   1.301e-03   6.631e-01
    7  -1.282e-01   1.170e-03   9.292e-01
    8  -2.012e-01   1.042e-03   1.228e+00
    9  -2.908e-01   9.171e-04   1.555e+00
   10  -3.962e-01   7.953e-04   1.907e+00
   11  -5.163e-01   6.764e-04   2.278e+00
   12  -6.495e-01   5.599e-04   2.666e+00
   13  -7.939e-01   4.458e-04   3.068e+00
   14  -9.476e-01   3.330e-04   3.480e+00
   15  -1.108e+00   2.239e-04   3.899e+00
   16  -1.274e+00   1.049e-04   4.324e+00
   17  -1.442e+00   3.877e-05   4.750e+00
   18   0.000e+00   0.000e+00   0.000e+00
   19   3.760e-03  -2.274e-03   2.762e-02
   20   2.734e-03  -1.613e-03   1.114e-01
   21  -8.412e-03  -1.589e-03   2.491e-01
   22  -3.265e-02  -1.430e-03   4.347e-01
   23  -7.220e-02  -1.301e-03   6.631e-01
   24  -1.282e-01  -1.170e-03   9.292e-01
   25  -2.012e-01  -1.042e-03   1.228e+00
   26  -2.908e-01  -9.171e-04   1.555e+00
   27  -3.962e-01  -7.953e-04   1.907e+00
   28  -5.163e-01  -6.764e-04   2.278e+00
   29  -6.495e-01  -5.599e-04   2.666e+00
   30  -7.939e-01  -4.458e-04   3.068e+00
   31  -9.476e-01  -3.330e-04   3.480e+00
   32  -1.108e+00  -2.239e-04   3.899e+00
   33  -1.274e+00  -1.049e-04   4.324e+00
   34  -1.442e+00  -3.877e-05   4.750e+00
   35   0.000e+00   0.000e+00   0.000e+00
   36  -4.976e-03  -2.292e-03   2.713e-02
   37  -1.510e-02  -1.625e-03   1.098e-01
   38  -3.427e-02  -1.599e-03   2.457e-01
   39  -6.575e-02  -1.436e-03   4.291e-01
   40  -1.117e-01  -1.306e-03   6.550e-01
   41  -1.734e-01  -1.172e-03   9.184e-01
   42  -2.512e-01  -1.043e-03   1.215e+00
   43  -3.450e-01  -9.167e-04   1.539e+00
   44  -4.540e-01  -7.936e-04   1.888e+00
   45  -5.770e-01  -6.736e-04   2.257e+00
   46  -7.126e-01  -5.563e-04   2.644e+00
   47  -8.590e-01  -4.415e-04   3.044e+00
   48  -1.014e+00  -3.282e-04   3.454e+00
   49  -1.176e+00  -2.187e-04   3.873e+00
   50  -1.342e+00  -9.950e-05   4.297e+00
   51  -1.511e+00  -3.326e-05   4.723e+00
   52   0.000e+00   0.000e+00   0.000e+00
   53  -4.976e-03   2.292e-03   2.713e-02
   54  -1.510e-02   1.625e-03   1.098e-01
   55  -3.427e-02   1.599e-03   2.457e-01
   56  -6.575e-02   1.436e-03   4.291e-01
   57  -1.117e-01   1.306e-03   6.550e-01
   58  -1.734e-01   1.172e-03   9.184e-01
   59  -2.512e-01   1.043e-03   1.215e+00
   60  -3.450e-01   9.167e-04   1.539e+00
   61  -4.540e-01   7.936e-04   1.888e+00
   62  -5.770e-01   6.736e-04   2.257e+00
   63  -7.126e-01   5.563e-04   2.644e+00
   64  -8.590e-01   4.415e-04   3.044e+00
   65  -1.014e+00   3.282e-04   3.454e+00
   66  -1.176e+00   2.187e-04   3.873e+00
   67  -1.342e+00   9.950e-05   4.297e+00
   68  -1.511e+00   3.326e-05   4.723e+00

Element Stress

        S11         S22         S33         S12         S23         S13
Element     1
  3.792e+05   3.173e+05   3.010e+05  -8.461e-10   1.297e-11   1.605e+02
  9.399e+04   5.357e+04   4.285e+04  -5.548e-10   1.592e-11   1.596e+02
 -1.508e+05  -1.507e+05  -1.508e+05  -3.859e-12   2.149e-11   1.579e+02
 -8.268e+03   3.233e+04   4.285e+04   5.455e-10   2.707e-11   1.562e+02
  2.230e+05   2.849e+05   3.010e+05   8.346e-10   3.001e-11   1.553e+02
Element     2
  4.558e+05   3.809e+05   3.838e+05  -1.482e-09   6.712e-11   1.601e+02
  1.018e+05   5.285e+04   5.468e+04  -9.711e-10   5.804e-11   1.600e+02
 -1.922e+05  -1.920e+05  -1.922e+05  -3.850e-12   4.082e-11   1.599e+02
  7.667e+03   5.689e+04   5.468e+04   9.613e-10   2.360e-11   1.597e+02
  3.121e+05   3.871e+05   3.838e+05   1.470e-09   1.451e-11   1.596e+02
Element     3
  3.639e+05   2.987e+05   2.975e+05  -1.446e-09   1.313e-11   1.557e+02
  8.581e+04   4.317e+04   4.237e+04  -9.446e-10   7.096e-12   1.559e+02
 -1.490e+05  -1.488e+05  -1.490e+05   4.623e-12  -4.339e-12   1.564e+02
 -9.560e+02   4.187e+04   4.237e+04   9.519e-10  -1.577e-11   1.568e+02
  2.314e+05   2.967e+05   2.975e+05   1.451e-09  -2.181e-11   1.570e+02
Element     4
  3.156e+05   2.550e+05   2.548e+05  -1.451e-09  -1.140e-10   1.534e+02
  7.604e+04   3.645e+04   3.630e+04  -9.457e-10  -7.844e-11   1.533e+02
 -1.276e+05  -1.275e+05  -1.276e+05   1.055e-11  -1.101e-11   1.532e+02
 -3.329e+03   3.641e+04   3.630e+04   9.648e-10   5.642e-11   1.531e+02
  1.943e+05   2.549e+05   2.548e+05   1.467e-09   9.200e-11   1.531e+02
Element     5
  2.648e+05   2.099e+05   2.096e+05  -1.176e-09  -1.722e-10   1.490e+02
  6.599e+04   3.007e+04   2.985e+04  -7.792e-10  -1.464e-10   1.491e+02
 -1.049e+05  -1.049e+05  -1.050e+05  -2.777e-11  -9.763e-11   1.493e+02
 -6.146e+03   2.984e+04   2.985e+04   7.222e-10  -4.881e-11   1.495e+02
  1.546e+05   2.095e+05   2.096e+05   1.117e-09  -2.306e-11   1.496e+02
Element     6
  2.207e+05   1.710e+05   1.708e+05  -7.383e-10   6.780e-11   1.451e+02
  5.694e+04   2.448e+04   2.434e+04  -4.628e-10   1.080e-10   1.451e+02
 -8.550e+04  -8.547e+04  -8.554e+04   5.840e-11   1.841e-10   1.451e+02
 -8.120e+03   2.436e+04   2.434e+04   5.786e-10   2.602e-10   1.452e+02
  1.213e+05   1.708e+05   1.708e+05   8.525e-10   3.003e-10   1.452e+02
Element     7
  1.811e+05   1.367e+05   1.366e+05  -6.196e-10  -2.662e-10   1.407e+02
  4.862e+04   1.957e+04   1.945e+04  -4.475e-10  -2.618e-10   1.408e+02
 -6.834e+04  -6.833e+04  -6.839e+04  -1.212e-10  -2.535e-10   1.409e+02
 -9.543e+03   1.948e+04   1.945e+04   2.050e-10  -2.452e-10   1.410e+02
  9.228e+04   1.366e+05   1.366e+05   3.770e-10  -2.408e-10   1.410e+02
Element     8
  1.463e+05   1.070e+05   1.069e+05  -4.830e-10  -2.400e-10   1.366e+02
  4.104e+04   1.531e+04   1.523e+04  -4.032e-10  -2.884e-10   1.366e+02
 -5.347e+04  -5.349e+04  -5.354e+04  -2.520e-10  -3.801e-10   1.366e+02
 -1.040e+04   1.525e+04   1.523e+04  -1.006e-10  -4.718e-10   1.367e+02
  6.775e+04   1.069e+05   1.069e+05  -2.064e-11  -5.201e-10   1.367e+02
Element     9
  1.159e+05   8.158e+04   8.150e+04  -6.317e-10  -3.069e-10   1.325e+02
  3.415e+04   1.167e+04   1.161e+04  -4.484e-10  -2.703e-10   1.326e+02
 -4.073e+04  -4.077e+04  -4.081e+04  -1.013e-10  -2.010e-10   1.326e+02
 -1.075e+04   1.163e+04   1.161e+04   2.451e-10  -1.316e-10   1.327e+02
  4.732e+04   8.152e+04   8.150e+04   4.276e-10  -9.502e-11   1.327e+02
Element    10
  8.959e+04   6.010e+04   6.004e+04  -5.105e-10  -5.455e-10   1.289e+02
  2.792e+04   8.594e+03   8.553e+03  -4.397e-10  -4.764e-10   1.289e+02
 -2.998e+04  -3.004e+04  -3.007e+04  -3.058e-10  -3.456e-10   1.289e+02
 -1.061e+04   8.572e+03   8.553e+03  -1.723e-10  -2.147e-10   1.290e+02
  3.073e+04   6.006e+04   6.004e+04  -1.020e-10  -1.457e-10   1.290e+02
Element    11
  6.705e+04   4.229e+04   4.226e+04   1.729e-10   1.742e-12   1.256e+02
  2.228e+04   6.045e+03   6.019e+03   1.167e-10  -1.772e-10   1.256e+02
 -2.107e+04  -2.114e+04  -2.116e+04   1.122e-11  -5.164e-10   1.256e+02
 -1.004e+04   6.034e+03   6.019e+03  -9.309e-11  -8.556e-10   1.257e+02
  1.769e+04   4.227e+04   4.226e+04  -1.476e-10  -1.034e-09   1.257e+02
Element    12
  4.803e+04   2.789e+04   2.787e+04  -1.266e-10  -1.849e-10   1.228e+02
  1.720e+04   3.985e+03   3.970e+03  -1.040e-10  -1.887e-10   1.228e+02
 -1.386e+04  -1.394e+04  -1.396e+04  -6.125e-11  -1.958e-10   1.228e+02
 -9.047e+03   3.983e+03   3.970e+03  -1.871e-11  -2.030e-10   1.228e+02
  7.941e+03   2.789e+04   2.787e+04   3.662e-12  -2.068e-10   1.228e+02
Element    13
  3.226e+04   1.666e+04   1.665e+04   2.179e-10   6.733e-11   1.205e+02
  1.262e+04   2.382e+03   2.372e+03   1.467e-10   1.017e-10   1.205e+02
 -8.236e+03  -8.331e+03  -8.338e+03   1.176e-11   1.669e-10   1.205e+02
 -7.664e+03   2.379e+03   2.372e+03  -1.232e-10   2.320e-10   1.205e+02
  1.270e+03   1.666e+04   1.665e+04  -1.944e-10   2.664e-10   1.205e+02
Element    14
  1.956e+04   8.426e+03   8.435e+03   4.261e-10   1.066e-09   1.187e+02
  8.519e+03   1.197e+03   1.202e+03   5.537e-10   8.953e-10   1.187e+02
 -4.117e+03  -4.220e+03  -4.223e+03   7.958e-10   5.725e-10   1.187e+02
 -5.901e+03   1.214e+03   1.202e+03   1.038e-09   2.497e-10   1.187e+02
 -2.469e+03   8.453e+03   8.435e+03   1.166e-09   7.944e-11   1.187e+02
Element    15
  9.666e+03   3.028e+03   2.969e+03  -4.878e-10  -6.158e-10   1.175e+02
  4.844e+03   4.621e+02   4.231e+02  -5.323e-10  -5.168e-10   1.175e+02
 -1.379e+03  -1.485e+03  -1.487e+03  -6.170e-10  -3.293e-10   1.175e+02
 -3.781e+03   3.866e+02   4.231e+02  -7.019e-10  -1.418e-10   1.175e+02
 -3.508e+03   2.913e+03   2.969e+03  -7.468e-10  -4.283e-11   1.175e+02
Element    16
  2.710e+03   1.227e+02   4.090e+02   1.108e-10   8.461e-10   1.169e+02
  1.603e+03  -1.291e+02   5.839e+01  -1.376e-10   4.318e-10   1.169e+02
 -9.553e+01  -2.046e+02  -2.046e+02  -6.083e-10  -3.536e-10   1.169e+02
 -1.268e+03   2.458e+02   5.839e+01  -1.079e-09  -1.139e-09   1.169e+02
 -1.674e+03   6.954e+02   4.090e+02  -1.327e-09  -1.553e-09   1.169e+02



TIME =   5.000e-01

Nodal Displacements

 Node          U1          U2          U3
    1   0.000e+00   0.000e+00   0.000e+00
    2   4.289e-03   2.661e-03   3.248e-02
    3   1.923e-03   1.870e-03   1.308e-01
    4  -1.416e-02   1.841e-03   2.915e-01
    5  -4.789e-02   1.647e-03   5.072e-01
    6  -1.021e-01   1.493e-03   7.712e-01
    7  -1.780e-01   1.336e-03   1.077e+00
    8  -2.761e-01   1.185e-03   1.419e+00
    9  -3.958e-01   1.039e-03   1.792e+00
   10  -5.358e-01   8.974e-04   2.190e+00
   11  -6.945e-01   7.606e-04   2.609e+00
   12  -8.697e-01   6.278e-04   3.046e+00
   13  -1.059e+00   4.987e-04   3.496e+00
   14  -1.260e+00   3.720e-04   3.956e+00
   15  -1.469e+00   2.500e-04   4.424e+00
   16  -1.685e+00   1.174e-04   4.897e+00
   17  -1.904e+00   4.385e-05   5.372e+00
   18   0.000e+00   0.000e+00   0.000e+00
   19   4.289e-03  -2.661e-03   3.248e-02
   20   1.923e-03  -1.870e-03   1.308e-01
   21  -1.416e-02  -1.841e-03   2.915e-01
   22  -4.789e-02  -1.647e-03   5.072e-01
   23  -1.021e-01  -1.493e-03   7.712e-01
   24  -1.780e-01  -1.336e-03   1.077e+00
   25  -2.761e-01  -1.185e-03   1.419e+00
   26  -3.958e-01  -1.039e-03   1.792e+00
   27  -5.358e-01  -8.974e-04   2.190e+00
   28  -6.945e-01  -7.606e-04   2.609e+00
   29  -8.697e-01  -6.278e-04   3.046e+00
   30  -1.059e+00  -4.987e-04   3.496e+00
   31  -1.260e+00  -3.720e-04   3.956e+00
   32  -1.469e+00  -2.500e-04   4.424e+00
   33  -1.685e+00  -1.174e-04   4.897e+00
   34  -1.904e+00  -4.385e-05   5.372e+00
   35   0.000e+00   0.000e+00   0.000e+00
   36  -5.966e-03  -2.686e-03   3.181e-02
   37  -1.893e-02  -1.886e-03   1.285e-01
   38  -4.425e-02  -1.854e-03   2.868e-01
   39  -8.622e-02  -1.656e-03   4.995e-01
   40  -1.476e-01  -1.499e-03   7.602e-01
   41  -2.298e-01  -1.339e-03   1.063e+00
   42  -3.332e-01  -1.186e-03   1.401e+00
   43  -4.573e-01  -1.038e-03   1.771e+00
   44  -6.011e-01  -8.946e-04   2.166e+00
   45  -7.629e-01  -7.564e-04   2.582e+00
   46  -9.406e-01  -6.225e-04   3.016e+00
   47  -1.132e+00  -4.925e-04   3.464e+00
   48  -1.334e+00  -3.651e-04   3.923e+00
   49  -1.545e+00  -2.427e-04   4.390e+00
   50  -1.761e+00  -1.099e-04   4.862e+00
   51  -1.980e+00  -3.620e-05   5.337e+00
   52   0.000e+00   0.000e+00   0.000e+00
   53  -5.966e-03   2.686e-03   3.181e-02
   54  -1.893e-02   1.886e-03   1.285e-01
   55  -4.425e-02   1.854e-03   2.868e-01
   56  -8.622e-02   1.656e-03   4.995e-01
   57  -1.476e-01   1.499e-03   7.602e-01
   58  -2.298e-01   1.339e-03   1.063e+00
   59  -3.332e-01   1.186e-03   1.401e+00
   60  -4.573e-01   1.038e-03   1.771e+00
   61  -6.011e-01   8.946e-04   2.166e+00
   62  -7.629e-01   7.564e-04   2.582e+00
   63  -9.406e-01   6.225e-04   3.016e+00
   64  -1.132e+00   4.925e-04   3.464e+00
   65  -1.334e+00   3.651e-04   3.923e+00
   66  -1.545e+00   2.427e-04   4.390e+00
   67  -1.761e+00   1.099e-04   4.862e+00
   68  -1.980e+00   3.620e-05   5.337e+00

Element Stress

        S11         S22         S33         S12         S23         S13
Element     1
  5.069e+05   4.342e+05   4.149e+05  -7.032e-06   8.875e-08   2.002e+02
  1.192e+05   7.174e+04   5.907e+04  -4.585e-06   1.019e-07   1.990e+02
 -2.079e+05  -2.077e+05  -2.078e+05   4.062e-08   1.269e-07   1.966e+02
 -9.942e+02   4.667e+04   5.907e+04   4.650e-06   1.519e-07   1.942e+02
  3.233e+05   3.959e+05   4.149e+05   7.076e-06   1.651e-07   1.930e+02
Element     2
  6.070e+05   5.196e+05   5.229e+05  -1.245e-05   2.865e-08   2.000e+02
  1.295e+05   7.243e+04   7.449e+04  -8.123e-06   4.367e-08   1.999e+02
 -2.618e+05  -2.616e+05  -2.618e+05   5.303e-08   7.215e-08   1.997e+02
  1.960e+04   7.707e+04   7.449e+04   8.208e-06   1.006e-07   1.995e+02
  4.391e+05   5.267e+05   5.229e+05   1.250e-05   1.157e-07   1.994e+02
Element     3
  4.788e+05   4.030e+05   4.015e+05  -1.172e-05  -6.151e-08   1.929e+02
  1.077e+05   5.823e+04   5.718e+04  -7.652e-06  -4.962e-08   1.932e+02
 -2.011e+05  -2.009e+05  -2.011e+05   4.457e-08  -2.706e-08   1.938e+02
  6.792e+03   5.654e+04   5.718e+04   7.723e-06  -4.510e-09   1.944e+02
  3.246e+05   4.005e+05   4.015e+05   1.177e-05   7.387e-09   1.947e+02
Element     4
  4.114e+05   3.414e+05   3.411e+05  -1.234e-05  -1.234e-08   1.887e+02
  9.461e+04   4.882e+04   4.858e+04  -8.060e-06   6.891e-11   1.886e+02
 -1.708e+05  -1.706e+05  -1.708e+05   3.727e-08   2.358e-08   1.885e+02
  2.722e+03   4.869e+04   4.858e+04   8.117e-06   4.710e-08   1.883e+02
  2.711e+05   3.412e+05   3.411e+05   1.237e-05   5.950e-08   1.882e+02
Element     5
  3.415e+05   2.782e+05   2.778e+05  -1.246e-05  -2.681e-08   1.815e+02
  8.123e+04   3.988e+04   3.957e+04  -8.141e-06  -1.712e-08   1.816e+02
 -1.391e+05  -1.390e+05  -1.391e+05   2.921e-08   1.263e-09   1.819e+02
 -1.885e+03   3.954e+04   3.957e+04   8.183e-06   1.964e-08   1.822e+02
  2.145e+05   2.777e+05   2.778e+05   1.248e-05   2.934e-08   1.824e+02
Element     6
  2.815e+05   2.246e+05   2.243e+05  -1.247e-05  -2.037e-08   1.750e+02
  6.936e+04   3.216e+04   3.195e+04  -8.154e-06  -1.110e-08   1.750e+02
 -1.123e+05  -1.122e+05  -1.123e+05   2.120e-08   6.478e-09   1.750e+02
 -5.234e+03   3.197e+04   3.195e+04   8.181e-06   2.405e-08   1.750e+02
  1.675e+05   2.243e+05   2.243e+05   1.248e-05   3.332e-08   1.750e+02
Element     7
  2.285e+05   1.779e+05   1.777e+05  -1.224e-05  -1.743e-08   1.678e+02
  5.860e+04   2.546e+04   2.531e+04  -8.005e-06  -1.039e-08   1.679e+02
 -8.888e+04  -8.888e+04  -8.896e+04   1.334e-08   2.963e-09   1.680e+02
 -7.756e+03   2.532e+04   2.531e+04   8.018e-06   1.632e-08   1.682e+02
  1.271e+05   1.776e+05   1.777e+05   1.224e-05   2.336e-08   1.682e+02
Element     8
  1.826e+05   1.380e+05   1.378e+05  -1.176e-05  -1.628e-08   1.611e+02
  4.897e+04   1.974e+04   1.963e+04  -7.696e-06  -9.919e-09   1.611e+02
 -6.891e+04  -6.895e+04  -6.901e+04   5.820e-09   2.131e-09   1.612e+02
 -9.453e+03   1.966e+04   1.963e+04   7.696e-06   1.418e-08   1.612e+02
  9.336e+04   1.378e+05   1.378e+05   1.175e-05   2.054e-08   1.612e+02
Element     9
  1.431e+05   1.043e+05   1.042e+05  -1.103e-05  -1.131e-08   1.546e+02
  4.035e+04   1.492e+04   1.484e+04  -7.216e-06  -6.868e-09   1.546e+02
 -5.204e+04  -5.211e+04  -5.216e+04  -7.111e-10   1.555e-09   1.547e+02
 -1.042e+04   1.486e+04   1.484e+04   7.205e-06   9.978e-09   1.548e+02
  6.554e+04   1.042e+05   1.042e+05   1.100e-05   1.442e-08   1.548e+02
Element    10
  1.094e+05   7.620e+04   7.614e+04  -1.004e-05  -1.014e-08   1.488e+02
  3.268e+04   1.090e+04   1.085e+04  -6.576e-06  -6.371e-09   1.488e+02
 -3.800e+04  -3.809e+04  -3.812e+04  -6.806e-09   7.802e-10   1.488e+02
 -1.071e+04   1.087e+04   1.085e+04   6.555e-06   7.932e-09   1.489e+02
  4.315e+04   7.616e+04   7.614e+04   1.001e-05   1.170e-08   1.489e+02
Element    11
  8.106e+04   5.325e+04   5.321e+04  -8.841e-06  -6.531e-09   1.435e+02
  2.585e+04   7.612e+03   7.579e+03  -5.791e-06  -3.945e-09   1.436e+02
 -2.651e+04  -2.662e+04  -2.664e+04  -1.212e-08   9.577e-10   1.436e+02
 -1.041e+04   7.598e+03   7.579e+03   5.761e-06   5.860e-09   1.437e+02
  2.567e+04   5.323e+04   5.321e+04   8.805e-06   8.446e-09   1.437e+02
Element    12
  5.747e+04   3.491e+04   3.489e+04  -7.458e-06  -7.095e-09   1.391e+02
  1.979e+04   4.988e+03   4.970e+03  -4.887e-06  -4.824e-09   1.391e+02
 -1.733e+04  -1.745e+04  -1.747e+04  -1.769e-08  -5.194e-10   1.391e+02
 -9.565e+03   4.985e+03   4.970e+03   4.848e-06   3.786e-09   1.392e+02
  1.262e+04   3.490e+04   3.489e+04   7.414e-06   6.057e-09   1.392e+02
Element    13
  3.818e+04   2.075e+04   2.074e+04  -5.926e-06  -2.495e-09   1.355e+02
  1.442e+04   2.966e+03   2.955e+03  -3.886e-06  -1.378e-09   1.355e+02
 -1.024e+04  -1.038e+04  -1.039e+04  -2.053e-08   7.384e-10   1.355e+02
 -8.216e+03   2.963e+03   2.955e+03   3.843e-06   2.855e-09   1.355e+02
  3.605e+03   2.075e+04   2.074e+04   5.880e-06   3.972e-09   1.356e+02
Element    14
  2.289e+04   1.046e+04   1.047e+04  -4.313e-06  -4.654e-09   1.327e+02
  9.672e+03   1.485e+03   1.491e+03  -2.831e-06  -3.681e-09   1.328e+02
 -5.093e+03  -5.236e+03  -5.240e+03  -2.320e-08  -1.836e-09   1.328e+02
 -6.390e+03   1.506e+03   1.491e+03   2.784e-06   9.859e-12   1.328e+02
 -1.649e+03   1.049e+04   1.047e+04   4.264e-06   9.834e-10   1.328e+02
Element    15
  1.116e+04   3.740e+03   3.675e+03  -2.571e-06   1.393e-10   1.309e+02
  5.472e+03   5.668e+02   5.236e+02  -1.692e-06   1.359e-09   1.309e+02
 -1.690e+03  -1.839e+03  -1.840e+03  -2.690e-08   3.672e-09   1.309e+02
 -4.122e+03   4.838e+02   5.236e+02   1.638e-06   5.985e-09   1.309e+02
 -3.500e+03   3.614e+03   3.675e+03   2.517e-06   7.205e-09   1.309e+02
Element    16
  3.095e+03   1.871e+02   5.055e+02  -1.088e-06  -4.635e-09   1.300e+02
  1.819e+03  -1.363e+02   7.217e+01  -7.220e-07  -4.576e-09   1.300e+02
 -1.011e+02  -2.529e+02  -2.529e+02  -2.744e-08  -4.463e-09   1.300e+02
 -1.371e+03   2.807e+02   7.217e+01   6.671e-07  -4.350e-09   1.300e+02
 -1.780e+03   8.240e+02   5.055e+02   1.033e-06  -4.290e-09   1.300e+02



TIME =   6.000e-01

Nodal Displacements

 Node          U1          U2          U3
    1   0.000e+00   0.000e+00   0.000e+00
    2   4.719e-03   2.996e-03   3.675e-02
    3   9.060e-04   2.085e-03   1.476e-01
    4  -2.016e-02   2.051e-03   3.281e-01
    5  -6.324e-02   1.825e-03   5.692e-01
    6  -1.316e-01   1.648e-03   8.628e-01
    7  -2.266e-01   1.467e-03   1.201e+00
    8  -3.485e-01   1.296e-03   1.578e+00
    9  -4.962e-01   1.131e-03   1.986e+00
   10  -6.682e-01   9.733e-04   2.421e+00
   11  -8.622e-01   8.219e-04   2.876e+00
   12  -1.075e+00   6.764e-04   3.349e+00
   13  -1.305e+00   5.360e-04   3.835e+00
   14  -1.548e+00   3.991e-04   4.331e+00
   15  -1.801e+00   2.681e-04   4.835e+00
   16  -2.061e+00   1.263e-04   5.343e+00
   17  -2.325e+00   4.766e-05   5.853e+00
   18   0.000e+00   0.000e+00   0.000e+00
   19   4.719e-03  -2.996e-03   3.675e-02
   20   9.060e-04  -2.085e-03   1.476e-01
   21  -2.016e-02  -2.051e-03   3.281e-01
   22  -6.324e-02  -1.825e-03   5.692e-01
   23  -1.316e-01  -1.648e-03   8.628e-01
   24  -2.266e-01  -1.467e-03   1.201e+00
   25  -3.485e-01  -1.296e-03   1.578e+00
   26  -4.962e-01  -1.131e-03   1.986e+00
   27  -6.682e-01  -9.733e-04   2.421e+00
   28  -8.622e-01  -8.219e-04   2.876e+00
   29  -1.075e+00  -6.764e-04   3.349e+00
   30  -1.305e+00  -5.360e-04   3.835e+00
   31  -1.548e+00  -3.991e-04   4.331e+00
   32  -1.801e+00  -2.681e-04   4.835e+00
   33  -2.061e+00  -1.263e-04   5.343e+00
   34  -2.325e+00  -4.766e-05   5.853e+00
   35   0.000e+00   0.000e+00   0.000e+00
   36  -6.861e-03  -3.027e-03   3.590e-02
   37  -2.254e-02  -2.105e-03   1.447e-01
   38  -5.384e-02  -2.067e-03   3.222e-01
   39  -1.059e-01  -1.836e-03   5.595e-01
   40  -1.820e-01  -1.655e-03   8.491e-01
   41  -2.837e-01  -1.471e-03   1.184e+00
   42  -4.111e-01  -1.296e-03   1.556e+00
   43  -5.635e-01  -1.129e-03   1.960e+00
   44  -7.393e-01  -9.691e-04   2.391e+00
   45  -9.363e-01  -8.161e-04   2.844e+00
   46  -1.152e+00  -6.693e-04   3.313e+00
   47  -1.384e+00  -5.278e-04   3.797e+00
   48  -1.628e+00  -3.902e-04   4.291e+00
   49  -1.882e+00  -2.586e-04   4.793e+00
   50  -2.143e+00  -1.165e-04   5.301e+00
   51  -2.406e+00  -3.781e-05   5.810e+00
   52   0.000e+00   0.000e+00   0.000e+00
   53  -6.861e-03   3.027e-03   3.590e-02
   54  -2.254e-02   2.105e-03   1.447e-01
   55  -5.384e-02   2.067e-03   3.222e-01
   56  -1.059e-01   1.836e-03   5.595e-01
   57  -1.820e-01   1.655e-03   8.491e-01
   58  -2.837e-01   1.471e-03   1.184e+00
   59  -4.111e-01   1.296e-03   1.556e+00
   60  -5.635e-01   1.129e-03   1.960e+00
   61  -7.393e-01   9.691e-04   2.391e+00
   62  -9.363e-01   8.161e-04   2.844e+00
   63  -1.152e+00   6.693e-04   3.313e+00
   64  -1.384e+00   5.278e-04   3.797e+00
   65  -1.628e+00   3.902e-04   4.291e+00
   66  -1.882e+00   2.586e-04   4.793e+00
   67  -2.143e+00   1.165e-04   5.301e+00
   68  -2.406e+00   3.781e-05   5.810e+00

Element Stress

        S11         S22         S33         S12         S23         S13
Element     1
  6.334e+05   5.514e+05   5.294e+05  -2.951e-09   3.576e-11   2.398e+02
  1.433e+05   8.978e+04   7.537e+04  -1.919e-09   3.723e-11   2.382e+02
 -2.653e+05  -2.650e+05  -2.652e+05   3.142e-11   4.001e-11   2.351e+02
  7.471e+03   6.130e+04   7.537e+04   1.974e-09   4.279e-11   2.321e+02
  4.258e+05   5.079e+05   5.294e+05   2.996e-09   4.426e-11   2.305e+02
Element     2
  7.539e+05   6.558e+05   6.593e+05  -4.571e-09  -1.839e-11   2.398e+02
  1.557e+05   9.169e+04   9.393e+04  -2.983e-09  -1.764e-11   2.396e+02
 -3.302e+05  -3.298e+05  -3.301e+05   2.185e-11  -1.624e-11   2.394e+02
  3.227e+04   9.683e+04   9.393e+04   3.018e-09  -1.483e-11   2.392e+02
  5.653e+05   6.636e+05   6.593e+05   4.595e-09  -1.409e-11   2.391e+02
Element     3
  5.880e+05   5.033e+05   5.015e+05  -2.805e-09  -1.749e-11   2.294e+02
  1.280e+05   7.271e+04   7.142e+04  -1.827e-09  -2.341e-11   2.298e+02
 -2.511e+05  -2.509e+05  -2.511e+05   2.304e-11  -3.462e-11   2.306e+02
  1.504e+04   7.063e+04   7.142e+04   1.868e-09  -4.584e-11   2.314e+02
  4.154e+05   5.002e+05   5.015e+05   2.839e-09  -5.176e-11   2.318e+02
Element     4
  5.008e+05   4.228e+05   4.224e+05  -1.967e-09  -1.645e-10   2.228e+02
  1.114e+05   6.049e+04   6.017e+04  -1.283e-09  -1.178e-10   2.227e+02
 -2.115e+05  -2.113e+05  -2.115e+05   1.239e-11  -2.934e-11   2.225e+02
  9.114e+03   6.027e+04   6.017e+04   1.304e-09   5.912e-11   2.224e+02
  3.445e+05   4.224e+05   4.224e+05   1.984e-09   1.058e-10   2.223e+02
Element     5
  4.112e+05   3.412e+05   3.406e+05  -1.688e-09   9.075e-11   2.123e+02
  9.469e+04   4.891e+04   4.852e+04  -1.118e-09   5.424e-11   2.125e+02
 -1.705e+05  -1.704e+05  -1.706e+05  -3.905e-11  -1.498e-11   2.129e+02
  2.606e+03   4.847e+04   4.852e+04   1.037e-09  -8.419e-11   2.132e+02
  2.705e+05   3.405e+05   3.406e+05   1.604e-09  -1.207e-10   2.134e+02
Element     6
  3.354e+05   2.727e+05   2.724e+05  -1.566e-09  -3.251e-10   2.027e+02
  8.005e+04   3.906e+04   3.880e+04  -1.051e-09  -2.644e-10   2.027e+02
 -1.363e+05  -1.363e+05  -1.364e+05  -7.729e-11  -1.495e-10   2.027e+02
 -2.174e+03   3.881e+04   3.880e+04   8.946e-10  -3.460e-11   2.027e+02
  2.098e+05   2.723e+05   2.724e+05   1.406e-09   2.602e-11   2.027e+02
Element     7
  2.694e+05   2.139e+05   2.136e+05  -7.507e-10  -1.092e-10   1.922e+02
  6.697e+04   3.062e+04   3.043e+04  -5.131e-10  -1.570e-10   1.923e+02
 -1.068e+05  -1.069e+05  -1.070e+05  -6.315e-11  -2.477e-10   1.925e+02
 -5.812e+03   3.044e+04   3.043e+04   3.862e-10  -3.384e-10   1.927e+02
  1.582e+05   2.136e+05   2.136e+05   6.229e-10  -3.862e-10   1.928e+02
Element     8
  2.131e+05   1.643e+05   1.642e+05  -1.014e-09  -6.382e-10   1.825e+02
  5.543e+04   2.352e+04   2.338e+04  -8.452e-10  -6.104e-10   1.826e+02
 -8.207e+04  -8.212e+04  -8.220e+04  -5.267e-10  -5.578e-10   1.826e+02
 -8.339e+03   2.341e+04   2.338e+04  -2.088e-10  -5.051e-10   1.827e+02
  1.157e+05   1.642e+05   1.642e+05  -4.137e-11  -4.773e-10   1.827e+02
Element     9
  1.653e+05   1.231e+05   1.230e+05   3.092e-10  -3.522e-10   1.732e+02
  4.527e+04   1.761e+04   1.752e+04   4.626e-11  -4.008e-10   1.733e+02
 -6.143e+04  -6.152e+04  -6.157e+04  -4.506e-10  -4.930e-10   1.734e+02
 -9.897e+03   1.754e+04   1.752e+04  -9.455e-10  -5.851e-10   1.735e+02
  8.104e+04   1.230e+05   1.230e+05  -1.206e-09  -6.337e-10   1.736e+02
Element    10
  1.252e+05   8.924e+04   8.916e+04   1.509e-11   7.668e-11   1.650e+02
  3.636e+04   1.276e+04   1.270e+04   2.242e-11   4.126e-11   1.650e+02
 -4.448e+04  -4.461e+04  -4.464e+04   3.696e-11  -2.589e-11   1.650e+02
 -1.060e+04   1.273e+04   1.270e+04   5.238e-11  -9.303e-11   1.651e+02
  5.350e+04   8.918e+04   8.916e+04   6.086e-11  -1.285e-10   1.651e+02
Element    11
  9.193e+04   6.191e+04   6.186e+04  -1.131e-09  -9.270e-10   1.576e+02
  2.855e+04   8.850e+03   8.812e+03  -9.406e-10  -7.132e-10   1.577e+02
 -3.080e+04  -3.095e+04  -3.097e+04  -5.805e-10  -3.079e-10   1.577e+02
 -1.056e+04   8.834e+03   8.812e+03  -2.221e-10   9.745e-11   1.578e+02
  3.219e+04   6.188e+04   6.186e+04  -3.375e-11   3.113e-10   1.578e+02
Element    12
  6.461e+04   4.033e+04   4.031e+04  -2.875e-10  -6.805e-10   1.514e+02
  2.171e+04   5.763e+03   5.742e+03  -3.956e-10  -4.970e-10   1.515e+02
 -2.000e+04  -2.017e+04  -2.018e+04  -6.000e-10  -1.491e-10   1.515e+02
 -9.849e+03   5.760e+03   5.742e+03  -8.038e-10   1.989e-10   1.515e+02
  1.640e+04   4.033e+04   4.031e+04  -9.111e-10   3.824e-10   1.515e+02
Element    13
  4.258e+04   2.386e+04   2.384e+04   4.235e-10   4.809e-10   1.464e+02
  1.572e+04   3.408e+03   3.396e+03   4.392e-10   4.596e-10   1.464e+02
 -1.175e+04  -1.193e+04  -1.194e+04   4.688e-10   4.192e-10   1.464e+02
 -8.547e+03   3.407e+03   3.396e+03   4.981e-10   3.789e-10   1.465e+02
  5.504e+03   2.385e+04   2.384e+04   5.133e-10   3.576e-10   1.465e+02
Element    14
  2.531e+04   1.197e+04   1.198e+04   1.252e-09   2.500e-09   1.426e+02
  1.049e+04   1.701e+03   1.707e+03   9.737e-10   1.805e-09   1.426e+02
 -5.810e+03  -5.996e+03  -6.001e+03   4.472e-10   4.890e-10   1.426e+02
 -6.693e+03   1.725e+03   1.707e+03  -7.768e-11  -8.272e-10   1.427e+02
 -9.458e+02   1.201e+04   1.198e+04  -3.539e-10  -1.522e-09   1.427e+02
Element    15
  1.222e+04   4.266e+03   4.197e+03   5.956e-10  -4.000e-10   1.401e+02
  5.919e+03   6.437e+02   5.980e+02   1.663e-11  -6.341e-10   1.401e+02
 -1.907e+03  -2.100e+03  -2.101e+03  -1.080e-09  -1.078e-09   1.401e+02
 -4.333e+03   5.561e+02   5.980e+02  -2.177e-09  -1.522e-09   1.401e+02
 -3.437e+03   4.132e+03   4.197e+03  -2.755e-09  -1.756e-09   1.401e+02
Element    16
  3.375e+03   2.363e+02   5.765e+02   9.421e-10  -1.166e-09   1.388e+02
  1.982e+03  -1.405e+02   8.230e+01   5.585e-10  -9.973e-10   1.388e+02
 -9.284e+01  -2.884e+02  -2.884e+02  -1.683e-10  -6.773e-10   1.388e+02
 -1.426e+03   3.050e+02   8.230e+01  -8.948e-10  -3.574e-10   1.388e+02
 -1.830e+03   9.168e+02   5.765e+02  -1.278e-09  -1.886e-10   1.388e+02



TIME =   7.000e-01

Nodal Displacements

 Node          U1          U2          U3
    1   0.000e+00   0.000e+00   0.000e+00
    2   5.076e-03   3.290e-03   4.055e-02
    3  -2.329e-04   2.268e-03   1.625e-01
    4  -2.619e-02   2.229e-03   3.601e-01
    5  -7.831e-02   1.974e-03   6.230e-01
    6  -1.602e-01   1.774e-03   9.416e-01
    7  -2.731e-01   1.572e-03   1.307e+00
    8  -4.170e-01   1.382e-03   1.712e+00
    9  -5.906e-01   1.201e-03   2.149e+00
   10  -7.916e-01   1.029e-03   2.612e+00
   11  -1.017e+00   8.661e-04   3.096e+00
   12  -1.264e+00   7.105e-04   3.596e+00
   13  -1.530e+00   5.616e-04   4.109e+00
   14  -1.810e+00   4.175e-04   4.632e+00
   15  -2.101e+00   2.803e-04   5.161e+00
   16  -2.400e+00   1.324e-04   5.695e+00
   17  -2.702e+00   5.050e-05   6.230e+00
   18   0.000e+00   0.000e+00   0.000e+00
   19   5.076e-03  -3.290e-03   4.055e-02
   20  -2.329e-04  -2.268e-03   1.625e-01
   21  -2.619e-02  -2.229e-03   3.601e-01
   22  -7.831e-02  -1.974e-03   6.230e-01
   23  -1.602e-01  -1.774e-03   9.416e-01
   24  -2.731e-01  -1.572e-03   1.307e+00
   25  -4.170e-01  -1.382e-03   1.712e+00
   26  -5.906e-01  -1.201e-03   2.149e+00
   27  -7.916e-01  -1.029e-03   2.612e+00
   28  -1.017e+00  -8.661e-04   3.096e+00
   29  -1.264e+00  -7.105e-04   3.596e+00
   30  -1.530e+00  -5.616e-04   4.109e+00
   31  -1.810e+00  -4.175e-04   4.632e+00
   32  -2.101e+00  -2.803e-04   5.161e+00
   33  -2.400e+00  -1.324e-04   5.695e+00
   34  -2.702e+00  -5.050e-05   6.230e+00
   35   0.000e+00   0.000e+00   0.000e+00
   36  -7.677e-03  -3.329e-03   3.951e-02
   37  -2.594e-02  -2.292e-03   1.590e-01
   38  -6.297e-02  -2.248e-03   3.530e-01
   39  -1.247e-01  -1.986e-03   6.115e-01
   40  -2.148e-01  -1.781e-03   9.253e-01
   41  -3.346e-01  -1.575e-03   1.286e+00
   42  -4.842e-01  -1.382e-03   1.686e+00
   43  -6.624e-01  -1.198e-03   2.119e+00
   44  -8.671e-01  -1.024e-03   2.577e+00
   45  -1.096e+00  -8.586e-04   3.058e+00
   46  -1.345e+00  -7.015e-04   3.555e+00
   47  -1.613e+00  -5.515e-04   4.065e+00
   48  -1.894e+00  -4.065e-04   4.586e+00
   49  -2.186e+00  -2.687e-04   5.114e+00
   50  -2.485e+00  -1.204e-04   5.647e+00
   51  -2.788e+00  -3.844e-05   6.182e+00
   52   0.000e+00   0.000e+00   0.000e+00
   53  -7.677e-03   3.329e-03   3.951e-02
   54  -2.594e-02   2.292e-03   1.590e-01
   55  -6.297e-02   2.248e-03   3.530e-01
   56  -1.247e-01   1.986e-03   6.115e-01
   57  -2.148e-01   1.781e-03   9.253e-01
   58  -3.346e-01   1.575e-03   1.286e+00
   59  -4.842e-01   1.382e-03   1.686e+00
   60  -6.624e-01   1.198e-03   2.119e+00
   61  -8.671e-01   1.024e-03   2.577e+00
   62  -1.096e+00   8.586e-04   3.058e+00
   63  -1.345e+00   7.015e-04   3.555e+00
   64  -1.613e+00   5.515e-04   4.065e+00
   65  -1.894e+00   4.065e-04   4.586e+00
   66  -2.186e+00   2.687e-04   5.114e+00
   67  -2.485e+00   1.204e-04   5.647e+00
   68  -2.788e+00   3.844e-05   6.182e+00

Element Stress

        S11         S22         S33         S12         S23         S13
Element     1
  7.571e+05   6.668e+05   6.425e+05  -3.556e-09   3.559e-11   2.793e+02
  1.664e+05   1.075e+05   9.146e+04  -2.316e-09   5.000e-11   2.773e+02
 -3.219e+05  -3.216e+05  -3.218e+05   2.586e-11   7.732e-11   2.736e+02
  1.662e+04   7.591e+04   9.146e+04   2.358e-09   1.046e-10   2.698e+02
  5.283e+05   6.186e+05   6.425e+05   3.584e-09   1.191e-10   2.678e+02
Element     2
  8.946e+05   7.872e+05   7.910e+05  -6.759e-09   6.191e-11   2.794e+02
  1.804e+05   1.103e+05   1.127e+05  -4.405e-09   5.544e-11   2.793e+02
 -3.961e+05  -3.957e+05  -3.960e+05   4.758e-11   4.319e-11   2.790e+02
  4.513e+04   1.159e+05   1.127e+05   4.486e-09   3.094e-11   2.788e+02
  6.879e+05   7.957e+05   7.910e+05   6.822e-09   2.447e-11   2.786e+02
Element     3
  6.904e+05   5.981e+05   5.959e+05  -5.739e-09  -1.165e-10   2.653e+02
  1.466e+05   8.640e+04   8.486e+04  -3.751e-09  -8.822e-11   2.658e+02
 -2.984e+05  -2.981e+05  -2.984e+05   8.837e-12  -3.459e-11   2.668e+02
  2.335e+04   8.393e+04   8.486e+04   3.757e-09   1.903e-11   2.677e+02
  5.020e+05   5.944e+05   5.959e+05   5.730e-09   4.732e-11   2.683e+02
Element     4
  5.828e+05   4.982e+05   4.977e+05  -4.703e-09  -2.281e-11   2.559e+02
  1.266e+05   7.130e+04   7.089e+04  -3.084e-09  -4.454e-11   2.558e+02
 -2.492e+05  -2.490e+05  -2.492e+05  -2.185e-11  -8.574e-11   2.556e+02
  1.546e+04   7.098e+04   7.089e+04   3.033e-09  -1.269e-10   2.554e+02
  4.131e+05   4.977e+05   4.977e+05   4.641e-09  -1.487e-10   2.553e+02
Element     5
  4.736e+05   3.980e+05   3.973e+05  -3.945e-09   1.477e-10   2.415e+02
  1.065e+05   5.707e+04   5.659e+04  -2.589e-09   8.380e-11   2.418e+02
 -1.989e+05  -1.988e+05  -1.990e+05  -2.423e-11  -3.726e-11   2.423e+02
  7.000e+03   5.651e+04   5.659e+04   2.535e-09  -1.583e-10   2.428e+02
  3.216e+05   3.971e+05   3.973e+05   3.883e-09  -2.222e-10   2.430e+02
Element     6
  3.824e+05   3.150e+05   3.146e+05  -3.085e-09  -5.907e-10   2.284e+02
  8.919e+04   4.512e+04   4.481e+04  -2.046e-09  -4.807e-10   2.284e+02
 -1.574e+05  -1.574e+05  -1.575e+05  -7.944e-11  -2.721e-10   2.284e+02
  7.866e+02   4.481e+04   4.481e+04   1.882e-09  -6.348e-11   2.285e+02
  2.473e+05   3.145e+05   3.146e+05   2.914e-09   4.656e-11   2.285e+02
Element     7
  3.040e+05   2.446e+05   2.443e+05  -1.991e-09  -8.425e-10   2.143e+02
  7.391e+04   3.502e+04   3.479e+04  -1.394e-09  -6.570e-10   2.145e+02
 -1.222e+05  -1.222e+05  -1.223e+05  -2.654e-10  -3.053e-10   2.147e+02
 -3.941e+03   3.481e+04   3.479e+04   8.601e-10   4.631e-11   2.149e+02
  1.851e+05   2.442e+05   2.443e+05   1.453e-09   2.318e-10   2.150e+02
Element     8
  2.380e+05   1.861e+05   1.859e+05  -8.975e-10  -1.564e-10   2.014e+02
  6.063e+04   2.664e+04   2.649e+04  -6.247e-10  -2.158e-10   2.015e+02
 -9.294e+04  -9.302e+04  -9.310e+04  -1.075e-10  -3.286e-10   2.015e+02
 -7.251e+03   2.651e+04   2.649e+04   4.094e-10  -4.414e-10   2.016e+02
  1.343e+05   1.859e+05   1.859e+05   6.821e-10  -5.008e-10   2.016e+02
Element     9
  1.829e+05   1.382e+05   1.380e+05  -4.594e-10   4.806e-11   1.891e+02
  4.911e+04   1.977e+04   1.966e+04  -2.695e-10  -2.443e-11   1.892e+02
 -6.894e+04  -6.906e+04  -6.912e+04   9.027e-11  -1.618e-10   1.893e+02
 -9.353e+03   1.969e+04   1.966e+04   4.499e-10  -2.992e-10   1.895e+02
  9.365e+04   1.381e+05   1.380e+05   6.395e-10  -3.717e-10   1.895e+02
Element    10
  1.374e+05   9.935e+04   9.927e+04  -7.419e-10  -3.011e-10   1.783e+02
  3.914e+04   1.421e+04   1.414e+04  -5.956e-10  -2.403e-10   1.783e+02
 -4.950e+04  -4.966e+04  -4.970e+04  -3.188e-10  -1.250e-10   1.784e+02
 -1.042e+04   1.417e+04   1.414e+04  -4.260e-11  -9.713e-12   1.784e+02
  6.167e+04   9.929e+04   9.927e+04   1.028e-10   5.110e-11   1.785e+02
Element    11
  1.000e+05   6.842e+04   6.837e+04  -1.068e-09   2.669e-10   1.687e+02
  3.052e+04   9.780e+03   9.739e+03  -7.838e-10   1.543e-10   1.687e+02
 -3.402e+04  -3.420e+04  -3.423e+04  -2.462e-10  -5.926e-11   1.688e+02
 -1.059e+04   9.764e+03   9.739e+03   2.902e-10  -2.728e-10   1.689e+02
  3.721e+04   6.839e+04   6.837e+04   5.726e-10  -3.854e-10   1.689e+02
Element    12
  6.977e+04   4.429e+04   4.427e+04  -1.293e-09  -1.312e-09   1.607e+02
  2.307e+04   6.328e+03   6.306e+03  -1.005e-09  -1.092e-09   1.607e+02
 -2.194e+04  -2.215e+04  -2.217e+04  -4.587e-10  -6.743e-10   1.608e+02
 -9.998e+03   6.327e+03   6.306e+03   8.591e-11  -2.569e-10   1.608e+02
  1.925e+04   4.429e+04   4.427e+04   3.726e-10  -3.674e-11   1.608e+02
Element    13
  4.566e+04   2.606e+04   2.605e+04   9.725e-10   8.259e-10   1.542e+02
  1.663e+04   3.723e+03   3.711e+03   1.145e-09   8.279e-10   1.542e+02
 -1.281e+04  -1.303e+04  -1.304e+04   1.472e-09   8.317e-10   1.543e+02
 -8.738e+03   3.724e+03   3.711e+03   1.799e-09   8.355e-10   1.543e+02
  6.917e+03   2.606e+04   2.605e+04   1.971e-09   8.375e-10   1.543e+02
Element    14
  2.697e+04   1.303e+04   1.304e+04   9.154e-10   3.010e-10   1.494e+02
  1.106e+04   1.851e+03   1.858e+03   6.240e-10   2.570e-10   1.494e+02
 -6.295e+03  -6.524e+03  -6.530e+03   7.208e-11   1.736e-10   1.494e+02
 -6.869e+03   1.877e+03   1.858e+03  -4.792e-10   9.016e-11   1.494e+02
 -4.103e+02   1.307e+04   1.304e+04  -7.697e-10   4.615e-11   1.494e+02
Element    15
  1.295e+04   4.626e+03   4.555e+03  -4.016e-10  -2.029e-09   1.461e+02
  6.228e+03   6.961e+02   6.490e+02  -2.564e-10  -1.764e-09   1.461e+02
 -2.043e+03  -2.279e+03  -2.281e+03   1.874e-11  -1.262e-09   1.461e+02
 -4.452e+03   6.060e+02   6.490e+02   2.935e-10  -7.596e-10   1.462e+02
 -3.361e+03   4.489e+03   4.555e+03   4.383e-10  -4.946e-10   1.462e+02
Element    16
  3.574e+03   2.704e+02   6.248e+02   2.648e-10   4.457e-10   1.445e+02
  2.102e+03  -1.428e+02   8.920e+01   3.809e-10   3.463e-10   1.445e+02
 -7.296e+01  -3.126e+02  -3.125e+02   6.011e-10   1.577e-10   1.445e+02
 -1.445e+03   3.212e+02   8.920e+01   8.213e-10  -3.084e-11   1.445e+02
 -1.844e+03   9.792e+02   6.248e+02   9.374e-10  -1.303e-10   1.445e+02



TIME =   8.000e-01

Nodal Displacements

 Node          U1          U2          U3
    1   0.000e+00   0.000e+00   0.000e+00
    2   5.377e-03   3.552e-03   4.397e-02
    3  -1.444e-03   2.427e-03   1.758e-01
    4  -3.217e-02   2.383e-03   3.886e-01
    5  -9.295e-02   2.098e-03   6.703e-01
    6  -1.876e-01   1.878e-03   1.010e+00
    7  -3.173e-01   1.657e-03   1.399e+00
    8  -4.815e-01   1.450e-03   1.827e+00
    9  -6.785e-01   1.254e-03   2.287e+00
   10  -9.057e-01   1.070e-03   2.773e+00
   11  -1.160e+00   8.974e-04   3.279e+00
   12  -1.437e+00   7.339e-04   3.801e+00
   13  -1.734e+00   5.787e-04   4.334e+00
   14  -2.046e+00   4.295e-04   4.877e+00
   15  -2.370e+00   2.881e-04   5.426e+00
   16  -2.702e+00   1.364e-04   5.979e+00
   17  -3.038e+00   5.262e-05   6.533e+00
   18   0.000e+00   0.000e+00   0.000e+00
   19   5.377e-03  -3.552e-03   4.397e-02
   20  -1.444e-03  -2.427e-03   1.758e-01
   21  -3.217e-02  -2.383e-03   3.886e-01
   22  -9.295e-02  -2.098e-03   6.703e-01
   23  -1.876e-01  -1.878e-03   1.010e+00
   24  -3.173e-01  -1.657e-03   1.399e+00
   25  -4.815e-01  -1.450e-03   1.827e+00
   26  -6.785e-01  -1.254e-03   2.287e+00
   27  -9.057e-01  -1.070e-03   2.773e+00
   28  -1.160e+00  -8.974e-04   3.279e+00
   29  -1.437e+00  -7.339e-04   3.801e+00
   30  -1.734e+00  -5.787e-04   4.334e+00
   31  -2.046e+00  -4.295e-04   4.877e+00
   32  -2.370e+00  -2.881e-04   5.426e+00
   33  -2.702e+00  -1.364e-04   5.979e+00
   34  -3.038e+00  -5.262e-05   6.533e+00
   35   0.000e+00   0.000e+00   0.000e+00
   36  -8.429e-03  -3.597e-03   4.275e-02
   37  -2.916e-02  -2.453e-03   1.717e-01
   38  -7.165e-02  -2.404e-03   3.803e-01
   39  -1.426e-01  -2.111e-03   6.570e-01
   40  -2.457e-01  -1.886e-03   9.917e-01
   41  -3.824e-01  -1.659e-03   1.375e+00
   42  -5.524e-01  -1.448e-03   1.797e+00
   43  -7.540e-01  -1.249e-03   2.253e+00
   44  -9.848e-01  -1.063e-03   2.734e+00
   45  -1.242e+00  -8.880e-04   3.236e+00
   46  -1.521e+00  -7.228e-04   3.754e+00
   47  -1.820e+00  -5.664e-04   4.285e+00
   48  -2.133e+00  -4.163e-04   4.826e+00
   49  -2.458e+00  -2.744e-04   5.373e+00
   50  -2.791e+00  -1.223e-04   5.925e+00
   51  -3.127e+00  -3.837e-05   6.479e+00
   52   0.000e+00   0.000e+00   0.000e+00
   53  -8.429e-03   3.597e-03   4.275e-02
   54  -2.916e-02   2.453e-03   1.717e-01
   55  -7.165e-02   2.404e-03   3.803e-01
   56  -1.426e-01   2.111e-03   6.570e-01
   57  -2.457e-01   1.886e-03   9.917e-01
   58  -3.824e-01   1.659e-03   1.375e+00
   59  -5.524e-01   1.448e-03   1.797e+00
   60  -7.540e-01   1.249e-03   2.253e+00
   61  -9.848e-01   1.063e-03   2.734e+00
   62  -1.242e+00   8.880e-04   3.236e+00
   63  -1.521e+00   7.228e-04   3.754e+00
   64  -1.820e+00   5.664e-04   4.285e+00
   65  -2.133e+00   4.163e-04   4.826e+00
   66  -2.458e+00   2.744e-04   5.373e+00
   67  -2.791e+00   1.223e-04   5.925e+00
   68  -3.127e+00   3.837e-05   6.479e+00

Element Stress

        S11         S22         S33         S12         S23         S13
Element     1
  8.776e+05   7.799e+05   7.534e+05  -6.001e-07   6.177e-09   3.187e+02
  1.884e+05   1.247e+05   1.072e+05  -3.908e-07   8.229e-09   3.163e+02
 -3.775e+05  -3.771e+05  -3.773e+05   4.455e-09   1.212e-08   3.119e+02
  2.614e+04   9.034e+04   1.072e+05   3.979e-07   1.601e-08   3.074e+02
  6.297e+05   7.274e+05   7.534e+05   6.047e-07   1.806e-08   3.050e+02
Element     2
  1.029e+06   9.132e+05   9.172e+05  -1.090e-06  -3.601e-10   3.189e+02
  2.037e+05   1.282e+05   1.307e+05  -7.109e-07   1.802e-09   3.187e+02
 -4.593e+05  -4.588e+05  -4.592e+05   6.382e-09   5.901e-09   3.185e+02
  5.789e+04   1.341e+05   1.307e+05   7.212e-07   1.000e-08   3.182e+02
  8.062e+05   9.222e+05   9.172e+05   1.097e-06   1.216e-08   3.181e+02
Element     3
  7.859e+05   6.871e+05   6.845e+05  -9.477e-07  -1.129e-08   3.006e+02
  1.638e+05   9.925e+04   9.748e+04  -6.184e-07  -9.567e-09   3.012e+02
 -3.428e+05  -3.425e+05  -3.428e+05   4.389e-09  -6.303e-09   3.024e+02
  3.149e+04   9.641e+04   9.748e+04   6.251e-07  -3.039e-09   3.036e+02
  5.838e+05   6.827e+05   6.845e+05   9.517e-07  -1.317e-09   3.042e+02
Element     4
  6.578e+05   5.675e+05   5.668e+05  -8.502e-07  -7.489e-09   2.881e+02
  1.402e+05   8.124e+04   8.074e+04  -5.553e-07  -5.601e-09   2.879e+02
 -2.838e+05  -2.836e+05  -2.838e+05   2.641e-09  -2.022e-09   2.877e+02
  2.158e+04   8.082e+04   8.074e+04   5.589e-07   1.557e-09   2.875e+02
  4.765e+05   5.668e+05   5.668e+05   8.517e-07   3.444e-09   2.873e+02
Element     5
  5.291e+05   4.488e+05   4.480e+05  -7.483e-07  -7.514e-09   2.695e+02
  1.169e+05   6.436e+04   6.381e+04  -4.891e-07  -6.020e-09   2.698e+02
 -2.242e+05  -2.241e+05  -2.243e+05   1.306e-09  -3.189e-09   2.704e+02
  1.115e+04   6.371e+04   6.381e+04   4.904e-07  -3.578e-10   2.709e+02
  3.676e+05   4.478e+05   4.480e+05   7.479e-07   1.136e-09   2.712e+02
Element     6
  4.229e+05   3.517e+05   3.512e+05  -6.405e-07  -7.260e-09   2.525e+02
  9.696e+04   5.039e+04   5.003e+04  -4.190e-07  -5.714e-09   2.525e+02
 -1.757e+05  -1.757e+05  -1.759e+05   2.258e-10  -2.784e-09   2.525e+02
  3.526e+03   5.003e+04   5.003e+04   4.185e-07   1.462e-10   2.525e+02
  2.802e+05   3.512e+05   3.512e+05   6.387e-07   1.692e-09   2.526e+02
Element     7
  3.329e+05   2.704e+05   2.700e+05  -5.370e-07  -6.793e-09   2.345e+02
  7.963e+04   3.872e+04   3.846e+04  -3.517e-07  -5.461e-09   2.347e+02
 -1.350e+05  -1.351e+05  -1.352e+05  -9.066e-10  -2.936e-09   2.350e+02
 -2.242e+03   3.847e+04   3.846e+04   3.492e-07  -4.105e-10   2.352e+02
  2.078e+05   2.700e+05   2.700e+05   5.336e-07   9.216e-10   2.354e+02
Element     8
  2.582e+05   2.038e+05   2.036e+05  -4.395e-07  -6.331e-09   2.182e+02
  6.477e+04   2.918e+04   2.900e+04  -2.881e-07  -4.973e-09   2.182e+02
 -1.017e+05  -1.019e+05  -1.019e+05  -1.393e-09  -2.398e-09   2.183e+02
 -6.274e+03   2.903e+04   2.900e+04   2.848e-07   1.764e-10   2.184e+02
  1.496e+05   2.036e+05   2.036e+05   4.355e-07   1.535e-09   2.184e+02
Element     9
  1.966e+05   1.499e+05   1.498e+05  -3.497e-07  -4.955e-09   2.028e+02
  5.204e+04   2.145e+04   2.134e+04  -2.294e-07  -3.866e-09   2.029e+02
 -7.478e+04  -7.494e+04  -7.501e+04  -1.508e-09  -1.801e-09   2.030e+02
 -8.858e+03   2.137e+04   2.134e+04   2.260e-07   2.632e-10   2.032e+02
  1.036e+05   1.498e+05   1.498e+05   3.459e-07   1.352e-09   2.032e+02
Element    10
  1.464e+05   1.069e+05   1.068e+05  -2.713e-07  -5.206e-09   1.893e+02
  4.118e+04   1.529e+04   1.522e+04  -1.786e-07  -4.183e-09   1.893e+02
 -5.325e+04  -5.344e+04  -5.349e+04  -3.179e-09  -2.245e-09   1.894e+02
 -1.022e+04   1.525e+04   1.522e+04   1.721e-07  -3.064e-10   1.894e+02
  6.786e+04   1.069e+05   1.068e+05   2.644e-07   7.161e-10   1.895e+02
Element    11
  1.058e+05   7.308e+04   7.303e+04  -2.030e-07  -4.723e-09   1.775e+02
  3.192e+04   1.045e+04   1.040e+04  -1.344e-07  -3.848e-09   1.775e+02
 -3.631e+04  -3.654e+04  -3.657e+04  -4.390e-09  -2.188e-09   1.776e+02
 -1.057e+04   1.043e+04   1.040e+04   1.254e-07  -5.290e-10   1.776e+02
  4.087e+04   7.306e+04   7.303e+04   1.939e-07   3.464e-10   1.777e+02
Element    12
  7.330e+04   4.701e+04   4.699e+04  -1.405e-07  -2.881e-09   1.676e+02
  2.400e+04   6.716e+03   6.694e+03  -9.257e-08  -2.073e-09   1.676e+02
 -2.326e+04  -2.351e+04  -2.353e+04  -1.749e-09  -5.421e-10   1.677e+02
 -1.007e+04   6.717e+03   6.694e+03   8.900e-08   9.893e-10   1.677e+02
  2.126e+04   4.702e+04   4.699e+04   1.368e-07   1.797e-09   1.677e+02
Element    13
  4.770e+04   2.752e+04   2.751e+04  -9.372e-08  -2.973e-09   1.597e+02
  1.723e+04   3.930e+03   3.918e+03  -6.277e-08  -2.601e-09   1.597e+02
 -1.350e+04  -1.376e+04  -1.377e+04  -4.140e-09  -1.896e-09   1.598e+02
 -8.836e+03   3.933e+03   3.918e+03   5.446e-08  -1.190e-09   1.598e+02
  7.885e+03   2.752e+04   2.751e+04   8.536e-08  -8.178e-10   1.598e+02
Element    14
  2.804e+04   1.370e+04   1.372e+04  -5.791e-08  -3.238e-09   1.538e+02
  1.143e+04   1.946e+03   1.954e+03  -4.007e-08  -2.650e-09   1.538e+02
 -6.590e+03  -6.862e+03  -6.868e+03  -6.262e-09  -1.535e-09   1.538e+02
 -6.957e+03   1.975e+03   1.954e+03   2.753e-08  -4.192e-10   1.538e+02
 -4.026e+01   1.375e+04   1.372e+04   4.535e-08   1.692e-10   1.538e+02
Element    15
  1.342e+04   4.850e+03   4.778e+03  -2.859e-08  -2.833e-09   1.498e+02
  6.432e+03   7.284e+02   6.808e+02  -2.048e-08  -2.426e-09   1.499e+02
 -2.110e+03  -2.390e+03  -2.392e+03  -5.109e-09  -1.654e-09   1.499e+02
 -4.505e+03   6.374e+02   6.808e+02   1.026e-08  -8.826e-10   1.499e+02
 -3.291e+03   4.711e+03   4.778e+03   1.836e-08  -4.756e-10   1.499e+02
Element    16
  3.711e+03   2.916e+02   6.544e+02  -9.260e-09  -8.092e-10   1.479e+02
  2.192e+03  -1.442e+02   9.343e+01  -6.988e-09  -6.714e-10   1.479e+02
 -4.384e+01  -3.274e+02  -3.273e+02  -2.680e-09  -4.100e-10   1.479e+02
 -1.438e+03   3.310e+02   9.343e+01   1.628e-09  -1.487e-10   1.479e+02
 -1.834e+03   1.017e+03   6.544e+02   3.901e-09  -1.085e-11   1.479e+02



TIME =   9.000e-01

Nodal Displacements

 Node          U1          U2          U3
    1   0.000e+00   0.000e+00   0.000e+00
    2   5.633e-03   3.789e-03   4.708e-02
    3  -2.697e-03   2.565e-03   1.878e-01
    4  -3.804e-02   2.517e-03   4.142e-01
    5  -1.071e-01   2.205e-03   7.125e-01
    6  -2.137e-01   1.965e-03   1.071e+00
    7  -3.590e-01   1.725e-03   1.479e+00
    8  -5.420e-01   1.503e-03   1.927e+00
    9  -7.604e-01   1.294e-03   2.406e+00
   10  -1.011e+00   1.100e-03   2.910e+00
   11  -1.290e+00   9.189e-04   3.434e+00
   12  -1.594e+00   7.491e-04   3.972e+00
   13  -1.919e+00   5.892e-04   4.522e+00
   14  -2.259e+00   4.366e-04   5.080e+00
   15  -2.612e+00   2.927e-04   5.644e+00
   16  -2.973e+00   1.390e-04   6.211e+00
   17  -3.339e+00   5.421e-05   6.780e+00
   18   0.000e+00   0.000e+00   0.000e+00
   19   5.633e-03  -3.789e-03   4.708e-02
   20  -2.697e-03  -2.565e-03   1.878e-01
   21  -3.804e-02  -2.517e-03   4.142e-01
   22  -1.071e-01  -2.205e-03   7.125e-01
   23  -2.137e-01  -1.965e-03   1.071e+00
   24  -3.590e-01  -1.725e-03   1.479e+00
   25  -5.420e-01  -1.503e-03   1.927e+00
   26  -7.604e-01  -1.294e-03   2.406e+00
   27  -1.011e+00  -1.100e-03   2.910e+00
   28  -1.290e+00  -9.189e-04   3.434e+00
   29  -1.594e+00  -7.491e-04   3.972e+00
   30  -1.919e+00  -5.892e-04   4.522e+00
   31  -2.259e+00  -4.366e-04   5.080e+00
   32  -2.612e+00  -2.927e-04   5.644e+00
   33  -2.973e+00  -1.390e-04   6.211e+00
   34  -3.339e+00  -5.421e-05   6.780e+00
   35   0.000e+00   0.000e+00   0.000e+00
   36  -9.127e-03  -3.840e-03   4.569e-02
   37  -3.222e-02  -2.595e-03   1.832e-01
   38  -7.992e-02  -2.541e-03   4.048e-01
   39  -1.595e-01  -2.218e-03   6.976e-01
   40  -2.748e-01  -1.972e-03   1.050e+00
   41  -4.272e-01  -1.727e-03   1.452e+00
   42  -6.159e-01  -1.500e-03   1.894e+00
   43  -8.389e-01  -1.288e-03   2.368e+00
   44  -1.093e+00  -1.091e-03   2.867e+00
   45  -1.375e+00  -9.075e-04   3.387e+00
   46  -1.681e+00  -7.360e-04   3.922e+00
   47  -2.007e+00  -5.748e-04   4.469e+00
   48  -2.349e+00  -4.212e-04   5.025e+00
   49  -2.703e+00  -2.768e-04   5.587e+00
   50  -3.064e+00  -1.227e-04   6.153e+00
   51  -3.430e+00  -3.777e-05   6.721e+00
   52   0.000e+00   0.000e+00   0.000e+00
   53  -9.127e-03   3.840e-03   4.569e-02
   54  -3.222e-02   2.595e-03   1.832e-01
   55  -7.992e-02   2.541e-03   4.048e-01
   56  -1.595e-01   2.218e-03   6.976e-01
   57  -2.748e-01   1.972e-03   1.050e+00
   58  -4.272e-01   1.727e-03   1.452e+00
   59  -6.159e-01   1.500e-03   1.894e+00
   60  -8.389e-01   1.288e-03   2.368e+00
   61  -1.093e+00   1.091e-03   2.867e+00
   62  -1.375e+00   9.075e-04   3.387e+00
   63  -1.681e+00   7.360e-04   3.922e+00
   64  -2.007e+00   5.748e-04   4.469e+00
   65  -2.349e+00   4.212e-04   5.025e+00
   66  -2.703e+00   2.768e-04   5.587e+00
   67  -3.064e+00   1.227e-04   6.153e+00
   68  -3.430e+00   3.777e-05   6.721e+00

Element Stress

        S11         S22         S33         S12         S23         S13
Element     1
  9.947e+05   8.902e+05   8.617e+05   5.106e-10  -2.586e-12   3.580e+02
  2.096e+05   1.414e+05   1.227e+05   3.472e-10  -6.729e-12   3.553e+02
 -4.318e+05  -4.313e+05  -4.316e+05   3.878e-11  -1.458e-11   3.501e+02
  3.588e+04   1.045e+05   1.227e+05  -2.681e-10  -2.244e-11   3.449e+02
  7.294e+05   8.339e+05   8.617e+05  -4.294e-10  -2.658e-11   3.422e+02
Element     2
  1.157e+06   1.034e+06   1.038e+06   1.158e-09  -7.918e-13   3.582e+02
  2.255e+05   1.453e+05   1.479e+05   7.625e-10  -7.725e-13   3.581e+02
 -5.197e+05  -5.192e+05  -5.197e+05   1.594e-11  -7.360e-13   3.578e+02
  7.043e+04   1.515e+05   1.479e+05  -7.278e-10  -6.995e-13   3.575e+02
  9.198e+05   1.043e+06   1.038e+06  -1.119e-09  -6.802e-13   3.574e+02
Element     3
  8.749e+05   7.703e+05   7.674e+05   8.762e-10   3.045e-11   3.354e+02
  1.796e+05   1.113e+05   1.093e+05   5.887e-10   4.505e-11   3.361e+02
 -3.843e+05  -3.840e+05  -3.843e+05   4.491e-11   7.275e-11   3.375e+02
  3.935e+04   1.081e+05   1.093e+05  -4.971e-10   1.004e-10   3.389e+02
  6.607e+05   7.654e+05   7.674e+05  -7.823e-10   1.151e-10   3.396e+02
Element     4
  7.262e+05   6.310e+05   6.302e+05   2.948e-12   4.818e-11   3.194e+02
  1.526e+05   9.035e+04   8.977e+04   2.946e-11   8.100e-11   3.192e+02
 -3.155e+05  -3.153e+05  -3.156e+05   7.945e-11   1.432e-10   3.189e+02
  2.738e+04   8.983e+04   8.977e+04   1.291e-10   2.054e-10   3.187e+02
  5.350e+05   6.302e+05   6.302e+05   1.552e-10   2.382e-10   3.185e+02
Element     5
  5.783e+05   4.941e+05   4.932e+05   3.902e-11   2.123e-10   2.962e+02
  1.260e+05   7.087e+04   7.024e+04   4.281e-11   1.595e-10   2.966e+02
 -2.468e+05  -2.467e+05  -2.470e+05   5.029e-11   5.934e-11   2.972e+02
  1.499e+04   7.012e+04   7.024e+04   5.816e-11  -4.083e-11   2.979e+02
  4.088e+05   4.929e+05   4.932e+05   6.248e-11  -9.366e-11   2.982e+02
Element     6
  4.578e+05   3.834e+05   3.829e+05   6.951e-10   7.606e-10   2.751e+02
  1.036e+05   5.494e+04   5.454e+04   5.870e-10   6.440e-10   2.751e+02
 -1.915e+05  -1.915e+05  -1.917e+05   3.833e-10   4.231e-10   2.751e+02
  5.999e+03   5.453e+04   5.454e+04   1.811e-10   2.021e-10   2.752e+02
  3.087e+05   3.828e+05   3.829e+05   7.504e-11   8.556e-11   2.752e+02
Element     7
  3.568e+05   2.919e+05   2.915e+05   2.625e-10   3.724e-10   2.531e+02
  8.433e+04   4.180e+04   4.152e+04   2.552e-10   3.361e-10   2.533e+02
 -1.457e+05  -1.458e+05  -1.460e+05   2.409e-10   2.672e-10   2.536e+02
 -7.493e+02   4.152e+04   4.152e+04   2.262e-10   1.983e-10   2.539e+02
  2.269e+05   2.914e+05   2.915e+05   2.182e-10   1.620e-10   2.540e+02
Element     8
  2.741e+05   2.179e+05   2.177e+05   9.777e-10   9.995e-10   2.332e+02
  6.802e+04   3.120e+04   3.101e+04   6.992e-10   8.442e-10   2.332e+02
 -1.088e+05  -1.089e+05  -1.090e+05   1.734e-10   5.497e-10   2.333e+02
 -5.438e+03   3.103e+04   3.101e+04  -3.498e-10   2.553e-10   2.334e+02
  1.619e+05   2.177e+05   2.177e+05  -6.246e-10   9.998e-11   2.334e+02
Element     9
  2.069e+05   1.589e+05   1.587e+05  -2.737e-10  -3.975e-10   2.146e+02
  5.425e+04   2.273e+04   2.261e+04  -1.140e-10  -2.378e-10   2.147e+02
 -7.921e+04  -7.941e+04  -7.948e+04   1.871e-10   6.480e-11   2.149e+02
 -8.439e+03   2.264e+04   2.261e+04   4.858e-10   3.674e-10   2.150e+02
  1.112e+05   1.587e+05   1.587e+05   6.425e-10   5.271e-10   2.151e+02
Element    10
  1.528e+05   1.124e+05   1.123e+05  -3.786e-10  -2.334e-10   1.984e+02
  4.264e+04   1.607e+04   1.599e+04  -3.336e-10  -1.727e-10   1.985e+02
 -5.593e+04  -5.616e+04  -5.621e+04  -2.493e-10  -5.769e-11   1.985e+02
 -1.005e+04   1.603e+04   1.599e+04  -1.663e-10   5.732e-11   1.986e+02
  7.235e+04   1.123e+05   1.123e+05  -1.230e-10   1.180e-10   1.986e+02
Element    11
  1.097e+05   7.623e+04   7.618e+04  -3.902e-10  -5.542e-10   1.844e+02
  3.286e+04   1.090e+04   1.085e+04  -2.659e-10  -4.968e-10   1.844e+02
 -3.785e+04  -3.811e+04  -3.815e+04  -3.083e-11  -3.881e-10   1.845e+02
 -1.053e+04   1.088e+04   1.085e+04   2.034e-10  -2.794e-10   1.846e+02
  4.337e+04   7.621e+04   7.618e+04   3.267e-10  -2.220e-10   1.846e+02
Element    12
  7.552e+04   4.873e+04   4.870e+04   1.261e-09  -6.307e-11   1.727e+02
  2.460e+04   6.959e+03   6.938e+03   9.451e-10  -1.937e-10   1.727e+02
 -2.408e+04  -2.437e+04  -2.439e+04   3.492e-10  -4.413e-10   1.728e+02
 -1.009e+04   6.964e+03   6.938e+03  -2.441e-10  -6.888e-10   1.728e+02
  2.254e+04   4.873e+04   4.870e+04  -5.561e-10  -8.195e-10   1.728e+02
Element    13
  4.890e+04   2.837e+04   2.836e+04   1.540e-09  -4.302e-10   1.634e+02
  1.759e+04   4.051e+03   4.040e+03   1.170e-09  -4.433e-10   1.634e+02
 -1.388e+04  -1.419e+04  -1.420e+04   4.706e-10  -4.682e-10   1.635e+02
 -8.870e+03   4.057e+03   4.040e+03  -2.280e-10  -4.931e-10   1.635e+02
  8.478e+03   2.838e+04   2.836e+04  -5.960e-10  -5.062e-10   1.635e+02
Element    14
  2.864e+04   1.407e+04   1.409e+04   6.340e-10   1.137e-09   1.565e+02
  1.165e+04   1.998e+03   2.007e+03   2.478e-10   7.990e-10   1.565e+02
 -6.731e+03  -7.047e+03  -7.053e+03  -4.833e-10   1.580e-10   1.565e+02
 -6.983e+03   2.029e+03   2.007e+03  -1.213e-09  -4.830e-10   1.565e+02
  1.865e+02   1.412e+04   1.409e+04  -1.597e-09  -8.211e-10   1.565e+02
Element    15
  1.367e+04   4.966e+03   4.894e+03   5.936e-10   5.376e-10   1.518e+02
  6.558e+03   7.448e+02   6.973e+02   2.012e-10   2.045e-10   1.519e+02
 -2.125e+03  -2.448e+03  -2.450e+03  -5.421e-10  -4.271e-10   1.519e+02
 -4.510e+03   6.540e+02   6.973e+02  -1.284e-09  -1.059e-09   1.519e+02
 -3.231e+03   4.827e+03   4.894e+03  -1.676e-09  -1.392e-09   1.519e+02
Element    16
  3.800e+03   3.022e+02   6.693e+02   7.885e-11  -1.623e-09   1.495e+02
  2.258e+03  -1.448e+02   9.555e+01  -2.404e-11  -1.392e-09   1.495e+02
 -7.607e+00  -3.348e+02  -3.348e+02  -2.190e-10  -9.533e-10   1.495e+02
 -1.413e+03   3.359e+02   9.555e+01  -4.139e-10  -5.151e-10   1.495e+02
 -1.807e+03   1.037e+03   6.693e+02  -5.167e-10  -2.839e-10   1.495e+02



TIME =   1.000e+00

Nodal Displacements

 Node          U1          U2          U3
    1   0.000e+00   0.000e+00   0.000e+00
    2   5.855e-03   4.005e-03   4.994e-02
    3  -3.973e-03   2.688e-03   1.988e-01
    4  -4.379e-02   2.635e-03   4.374e-01
    5  -1.207e-01   2.296e-03   7.505e-01
    6  -2.387e-01   2.038e-03   1.125e+00
    7  -3.985e-01   1.781e-03   1.550e+00
    8  -5.988e-01   1.544e-03   2.014e+00
    9  -8.367e-01   1.324e-03   2.509e+00
   10  -1.109e+00   1.121e-03   3.029e+00
   11  -1.411e+00   9.329e-04   3.567e+00
   12  -1.738e+00   7.581e-04   4.119e+00
   13  -2.087e+00   5.948e-04   4.681e+00
   14  -2.452e+00   4.400e-04   5.251e+00
   15  -2.830e+00   2.949e-04   5.826e+00
   16  -3.217e+00   1.405e-04   6.405e+00
   17  -3.607e+00   5.540e-05   6.984e+00
   18   0.000e+00   0.000e+00   0.000e+00
   19   5.855e-03  -4.005e-03   4.994e-02
   20  -3.973e-03  -2.688e-03   1.988e-01
   21  -4.379e-02  -2.635e-03   4.374e-01
   22  -1.207e-01  -2.296e-03   7.505e-01
   23  -2.387e-01  -2.038e-03   1.125e+00
   24  -3.985e-01  -1.781e-03   1.550e+00
   25  -5.988e-01  -1.544e-03   2.014e+00
   26  -8.367e-01  -1.324e-03   2.509e+00
   27  -1.109e+00  -1.121e-03   3.029e+00
   28  -1.411e+00  -9.329e-04   3.567e+00
   29  -1.738e+00  -7.581e-04   4.119e+00
   30  -2.087e+00  -5.948e-04   4.681e+00
   31  -2.452e+00  -4.400e-04   5.251e+00
   32  -2.830e+00  -2.949e-04   5.826e+00
   33  -3.217e+00  -1.405e-04   6.405e+00
   34  -3.607e+00  -5.540e-05   6.984e+00
   35   0.000e+00   0.000e+00   0.000e+00
   36  -9.780e-03  -4.062e-03   4.838e-02
   37  -3.513e-02  -2.721e-03   1.937e-01
   38  -8.782e-02  -2.661e-03   4.270e-01
   39  -1.756e-01  -2.310e-03   7.340e-01
   40  -3.024e-01  -2.045e-03   1.102e+00
   41  -4.694e-01  -1.781e-03   1.520e+00
   42  -6.752e-01  -1.540e-03   1.978e+00
   43  -9.176e-01  -1.316e-03   2.468e+00
   44  -1.193e+00  -1.110e-03   2.982e+00
   45  -1.498e+00  -9.194e-04   3.516e+00
   46  -1.827e+00  -7.429e-04   4.064e+00
   47  -2.177e+00  -5.783e-04   4.624e+00
   48  -2.544e+00  -4.225e-04   5.192e+00
   49  -2.922e+00  -2.768e-04   5.765e+00
   50  -3.309e+00  -1.220e-04   6.342e+00
   51  -3.700e+00  -3.679e-05   6.922e+00
   52   0.000e+00   0.000e+00   0.000e+00
   53  -9.780e-03   4.062e-03   4.838e-02
   54  -3.513e-02   2.721e-03   1.937e-01
   55  -8.782e-02   2.661e-03   4.270e-01
   56  -1.756e-01   2.310e-03   7.340e-01
   57  -3.024e-01   2.045e-03   1.102e+00
   58  -4.694e-01   1.781e-03   1.520e+00
   59  -6.752e-01   1.540e-03   1.978e+00
   60  -9.176e-01   1.316e-03   2.468e+00
   61  -1.193e+00   1.110e-03   2.982e+00
   62  -1.498e+00   9.194e-04   3.516e+00
   63  -1.827e+00   7.429e-04   4.064e+00
   64  -2.177e+00   5.783e-04   4.624e+00
   65  -2.544e+00   4.225e-04   5.192e+00
   66  -2.922e+00   2.768e-04   5.765e+00
   67  -3.309e+00   1.220e-04   6.342e+00
   68  -3.700e+00   3.679e-05   6.922e+00

Element Stress

        S11         S22         S33         S12         S23         S13
Element     1
  1.109e+06   9.979e+05   9.675e+05  -2.132e-06   1.951e-08   3.972e+02
  2.299e+05   1.577e+05   1.377e+05  -1.387e-06   2.788e-08   3.941e+02
 -4.848e+05  -4.843e+05  -4.846e+05   1.834e-08   4.374e-08   3.883e+02
  4.571e+04   1.184e+05   1.377e+05   1.417e-06   5.960e-08   3.824e+02
  8.272e+05   9.379e+05   9.675e+05   2.151e-06   6.797e-08   3.794e+02
Element     2
  1.279e+06   1.149e+06   1.153e+06  -3.964e-06   2.194e-09   3.975e+02
  2.462e+05   1.617e+05   1.643e+05  -2.584e-06   1.159e-08   3.973e+02
 -5.776e+05  -5.770e+05  -5.775e+05   2.509e-08   2.940e-08   3.970e+02
  8.267e+04   1.681e+05   1.643e+05   2.624e-06   4.721e-08   3.968e+02
  1.029e+06   1.159e+06   1.153e+06   3.991e-06   5.661e-08   3.966e+02
Element     3
  9.581e+05   8.483e+05   8.451e+05  -3.972e-06  -2.627e-08   3.697e+02
  1.942e+05   1.226e+05   1.203e+05  -2.591e-06  -1.873e-08   3.705e+02
 -4.232e+05  -4.228e+05  -4.232e+05   2.090e-08  -4.424e-09   3.721e+02
  4.690e+04   1.190e+05   1.203e+05   2.623e-06   9.877e-09   3.737e+02
  7.330e+05   8.429e+05   8.451e+05   3.992e-06   1.742e-08   3.745e+02
Element     4
  7.887e+05   6.892e+05   6.883e+05  -4.289e-06  -1.272e-08   3.498e+02
  1.637e+05   9.870e+04   9.805e+04  -2.800e-06  -4.770e-09   3.497e+02
 -3.446e+05  -3.444e+05  -3.447e+05   1.681e-08   1.031e-08   3.494e+02
  3.284e+04   9.810e+04   9.805e+04   2.824e-06   2.539e-08   3.490e+02
  5.888e+05   6.883e+05   6.883e+05   4.302e-06   3.334e-08   3.489e+02
Element     5
  6.220e+05   5.344e+05   5.334e+05  -4.450e-06  -1.477e-08   3.219e+02
  1.340e+05   7.666e+04   7.597e+04  -2.907e-06  -8.556e-09   3.223e+02
 -2.670e+05  -2.669e+05  -2.671e+05   1.212e-08   3.221e-09   3.230e+02
  1.852e+04   7.583e+04   7.597e+04   2.923e-06   1.500e-08   3.238e+02
  4.457e+05   5.331e+05   5.334e+05   4.455e-06   2.121e-08   3.242e+02
Element     6
  4.877e+05   4.107e+05   4.101e+05  -4.542e-06  -1.295e-08   2.964e+02
  1.092e+05   5.885e+04   5.842e+04  -2.969e-06  -7.010e-09   2.964e+02
 -2.052e+05  -2.052e+05  -2.054e+05   7.707e-09   4.242e-09   2.964e+02
  8.200e+03   5.840e+04   5.842e+04   2.977e-06   1.549e-08   2.965e+02
  3.334e+05   4.100e+05   4.101e+05   4.540e-06   2.143e-08   2.965e+02
Element     7
  3.765e+05   3.096e+05   3.092e+05  -4.525e-06  -1.090e-08   2.702e+02
  8.817e+04   4.434e+04   4.404e+04  -2.960e-06  -6.229e-09   2.704e+02
 -1.546e+05  -1.547e+05  -1.548e+05   2.970e-09   2.632e-09   2.707e+02
  5.332e+02   4.404e+04   4.404e+04   2.959e-06   1.149e-08   2.711e+02
  2.426e+05   3.091e+05   3.092e+05   4.517e-06   1.617e-08   2.712e+02
Element     8
  2.866e+05   2.290e+05   2.287e+05  -4.400e-06  -1.001e-08   2.467e+02
  7.056e+04   3.278e+04   3.258e+04  -2.880e-06  -5.833e-09   2.467e+02
 -1.142e+05  -1.144e+05  -1.145e+05  -6.436e-10   2.083e-09   2.468e+02
 -4.746e+03   3.261e+04   3.258e+04   2.873e-06   9.999e-09   2.469e+02
  1.716e+05   2.287e+05   2.287e+05   4.387e-06   1.417e-08   2.469e+02
Element     9
  2.145e+05   1.654e+05   1.653e+05  -4.161e-06  -7.239e-09   2.249e+02
  5.587e+04   2.367e+04   2.354e+04  -2.724e-06  -4.197e-09   2.250e+02
 -8.246e+04  -8.269e+04  -8.276e+04  -4.254e-09   1.569e-09   2.252e+02
 -8.104e+03   2.358e+04   2.354e+04   2.712e-06   7.336e-09   2.253e+02
  1.168e+05   1.653e+05   1.653e+05   4.143e-06   1.038e-08   2.254e+02
Element    10
  1.572e+05   1.160e+05   1.159e+05  -3.816e-06  -6.929e-09   2.060e+02
  4.364e+04   1.659e+04   1.652e+04  -2.500e-06  -4.165e-09   2.061e+02
 -5.773e+04  -5.800e+04  -5.805e+04  -8.124e-09   1.076e-09   2.061e+02
 -9.911e+03   1.655e+04   1.652e+04   2.481e-06   6.316e-09   2.062e+02
  7.542e+04   1.160e+05   1.159e+05   3.793e-06   9.081e-09   2.062e+02
Element    11
  1.120e+05   7.815e+04   7.810e+04  -3.373e-06  -4.333e-09   1.898e+02
  3.345e+04   1.117e+04   1.113e+04  -2.211e-06  -2.559e-09   1.898e+02
 -3.877e+04  -3.907e+04  -3.911e+04  -1.069e-08   8.040e-10   1.899e+02
 -1.049e+04   1.116e+04   1.113e+04   2.188e-06   4.167e-09   1.900e+02
  4.493e+04   7.814e+04   7.810e+04   3.346e-06   5.941e-09   1.900e+02
Element    12
  7.673e+04   4.964e+04   4.962e+04  -2.852e-06  -3.680e-09   1.764e+02
  2.493e+04   7.088e+03   7.068e+03  -1.870e-06  -2.243e-09   1.764e+02
 -2.449e+04  -2.482e+04  -2.484e+04  -1.113e-08   4.822e-10   1.764e+02
 -1.007e+04   7.096e+03   7.068e+03   1.847e-06   3.207e-09   1.765e+02
  2.326e+04   4.965e+04   4.962e+04   2.826e-06   4.644e-09   1.765e+02
Element    13
  4.946e+04   2.875e+04   2.874e+04  -2.273e-06  -1.734e-09   1.657e+02
  1.778e+04   4.104e+03   4.095e+03  -1.492e-06  -8.038e-10   1.657e+02
 -1.403e+04  -1.438e+04  -1.439e+04  -1.319e-08   9.593e-10   1.658e+02
 -8.861e+03   4.113e+03   4.095e+03   1.465e-06   2.722e-09   1.658e+02
  8.770e+03   2.877e+04   2.874e+04   2.244e-06   3.653e-09   1.658e+02
Element    14
  2.889e+04   1.420e+04   1.422e+04  -1.655e-06  -2.952e-09   1.578e+02
  1.175e+04   2.016e+03   2.026e+03  -1.088e-06  -1.994e-09   1.578e+02
 -6.755e+03  -7.114e+03  -7.120e+03  -1.358e-08  -1.767e-10   1.578e+02
 -6.964e+03   2.049e+03   2.026e+03   1.060e-06   1.640e-09   1.578e+02
  2.971e+02   1.425e+04   1.422e+04   1.627e-06   2.599e-09   1.579e+02
Element    15
  1.378e+04   4.998e+03   4.927e+03  -9.874e-07   1.703e-09   1.525e+02
  6.624e+03   7.491e+02   7.020e+02  -6.516e-07   2.158e-09   1.526e+02
 -2.098e+03  -2.465e+03  -2.467e+03  -1.522e-08   3.022e-09   1.526e+02
 -4.480e+03   6.593e+02   7.020e+02   6.210e-07   3.885e-09   1.526e+02
 -3.183e+03   4.861e+03   4.927e+03   9.566e-07   4.340e-09   1.526e+02
Element    16
  3.854e+03   3.046e+02   6.728e+02  -4.220e-07  -2.488e-09   1.499e+02
  2.307e+03  -1.451e+02   9.606e+01  -2.819e-07  -2.267e-09   1.499e+02
  3.399e+01  -3.366e+02  -3.365e+02  -1.620e-08  -1.846e-09   1.499e+02
 -1.373e+03   3.372e+02   9.606e+01   2.494e-07  -1.426e-09   1.499e+02
 -1.767e+03   1.041e+03   6.728e+02   3.895e-07  -1.204e-09   1.499e+02

		 *** Successful end of program ***
