

TIME =   1.000e-01

Nodal Displacements

 Node          U1          U2          U3
    1   0.000e+00   0.000e+00   0.000e+00
    2   1.365e-03   6.163e-08   8.971e-03
    3   2.149e-03  -2.994e-08   3.528e-02
    4   1.952e-03   1.176e-08   7.772e-02
    5   4.669e-04  -4.855e-09   1.351e-01
    6  -2.529e-03   1.573e-09   2.062e-01
    7  -7.182e-03  -8.933e-10   2.899e-01
    8  -1.357e-02   5.398e-11   3.849e-01
    9  -2.169e-02  -3.065e-10   4.901e-01
   10  -3.152e-02  -1.659e-10   6.043e-01
   11  -4.295e-02  -2.173e-10   7.264e-01
   12  -5.584e-02  -1.954e-10   8.551e-01
   13  -7.003e-02  -2.018e-10   9.895e-01
   14  -8.530e-02  -1.976e-10   1.128e+00
   15  -1.014e-01  -1.980e-10   1.270e+00
   16  -1.182e-01  -1.970e-10   1.415e+00
   17  -1.353e-01  -1.970e-10   1.560e+00
   18   0.000e+00   0.000e+00   0.000e+00
   19   1.365e-03  -6.163e-08   8.971e-03
   20   2.149e-03   2.994e-08   3.528e-02
   21   1.952e-03  -1.176e-08   7.772e-02
   22   4.669e-04   4.855e-09   1.351e-01
   23  -2.529e-03  -1.573e-09   2.062e-01
   24  -7.182e-03   8.933e-10   2.899e-01
   25  -1.357e-02  -5.397e-11   3.849e-01
   26  -2.169e-02   3.065e-10   4.901e-01
   27  -3.152e-02   1.660e-10   6.043e-01
   28  -4.295e-02   2.174e-10   7.264e-01
   29  -5.584e-02   1.954e-10   8.551e-01
   30  -7.003e-02   2.018e-10   9.895e-01
   31  -8.530e-02   1.977e-10   1.128e+00
   32  -1.014e-01   1.980e-10   1.270e+00
   33  -1.182e-01   1.971e-10   1.415e+00
   34  -1.353e-01   1.971e-10   1.560e+00
   35   0.000e+00   0.000e+00   0.000e+00
   36  -1.497e-03   6.164e-08   8.930e-03
   37  -3.386e-03  -2.993e-08   3.512e-02
   38  -6.065e-03   1.176e-08   7.740e-02
   39  -9.841e-03  -4.853e-09   1.346e-01
   40  -1.494e-02   1.572e-09   2.054e-01
   41  -2.150e-02  -8.930e-10   2.888e-01
   42  -2.961e-02   5.389e-11   3.836e-01
   43  -3.927e-02  -3.064e-10   4.885e-01
   44  -5.045e-02  -1.659e-10   6.025e-01
   45  -6.304e-02  -2.173e-10   7.243e-01
   46  -7.692e-02  -1.954e-10   8.529e-01
   47  -9.191e-02  -2.018e-10   9.871e-01
   48  -1.078e-01  -1.976e-10   1.126e+00
   49  -1.244e-01  -1.979e-10   1.268e+00
   50  -1.414e-01  -1.970e-10   1.412e+00
   51  -1.586e-01  -1.970e-10   1.557e+00
   52   0.000e+00   0.000e+00   0.000e+00
   53  -1.497e-03  -6.164e-08   8.930e-03
   54  -3.386e-03   2.993e-08   3.512e-02
   55  -6.065e-03  -1.176e-08   7.740e-02
   56  -9.841e-03   4.853e-09   1.346e-01
   57  -1.494e-02  -1.572e-09   2.054e-01
   58  -2.150e-02   8.930e-10   2.888e-01
   59  -2.961e-02  -5.386e-11   3.836e-01
   60  -3.927e-02   3.065e-10   4.885e-01
   61  -5.045e-02   1.660e-10   6.025e-01
   62  -6.304e-02   2.174e-10   7.243e-01
   63  -7.692e-02   1.954e-10   8.529e-01
   64  -9.191e-02   2.019e-10   9.871e-01
   65  -1.078e-01   1.977e-10   1.126e+00
   66  -1.244e-01   1.981e-10   1.268e+00
   67  -1.414e-01   1.971e-10   1.412e+00
   68  -1.586e-01   1.972e-10   1.557e+00

Element Stress

        S11         S22         S33         S12         S23         S13
Element     1
  2.290e+04  -6.163e-01  -1.157e+01  -6.990e-09   1.274e-10   4.092e+01
  1.498e+04  -6.163e-01  -1.157e+01  -4.571e-09   1.244e-10   4.060e+01
 -2.565e+01  -6.163e-01  -1.157e+01   8.329e-12   1.187e-10   4.000e+01
 -1.501e+04  -6.163e-01  -1.157e+01   4.581e-09   1.130e-10   3.939e+01
 -2.290e+04  -6.164e-01  -1.157e+01   6.991e-09   1.100e-10   3.907e+01
Element     2
  2.140e+04  -3.170e-01  -1.738e+01  -1.201e-08   3.708e-11   3.951e+01
  1.400e+04  -3.170e-01  -1.738e+01  -7.856e-09   4.284e-11   3.967e+01
 -2.122e+01  -3.170e-01  -1.738e+01   1.293e-11   5.375e-11   3.997e+01
 -1.402e+04  -3.170e-01  -1.738e+01   7.871e-09   6.466e-11   4.027e+01
 -2.140e+04  -3.171e-01  -1.738e+01   1.201e-08   7.042e-11   4.043e+01
Element     3
  1.990e+04   1.818e-01  -1.239e+01  -1.058e-08  -5.565e-11   3.997e+01
  1.302e+04   1.818e-01  -1.239e+01  -6.919e-09  -5.563e-11   3.995e+01
 -1.709e+01   1.817e-01  -1.239e+01   7.842e-12  -5.561e-11   3.991e+01
 -1.304e+04   1.817e-01  -1.239e+01   6.926e-09  -5.558e-11   3.987e+01
 -1.990e+04   1.817e-01  -1.239e+01   1.057e-08  -5.557e-11   3.985e+01
Element     4
  1.841e+04  -6.906e-02  -1.159e+01  -1.050e-08   5.792e-11   3.971e+01
  1.204e+04  -6.905e-02  -1.159e+01  -6.867e-09   4.973e-11   3.975e+01
 -1.328e+01  -6.905e-02  -1.159e+01   1.038e-11   3.420e-11   3.983e+01
 -1.206e+04  -6.904e-02  -1.159e+01   6.879e-09   1.867e-11   3.992e+01
 -1.840e+04  -6.904e-02  -1.159e+01   1.050e-08   1.048e-11   3.996e+01
Element     5
  1.692e+04   3.282e-02  -9.410e+00  -9.979e-09  -1.018e-10   3.970e+01
  1.107e+04   3.282e-02  -9.410e+00  -6.531e-09  -9.136e-11   3.971e+01
 -9.761e+00   3.282e-02  -9.410e+00  -9.362e-13  -7.155e-11   3.974e+01
 -1.108e+04   3.281e-02  -9.410e+00   6.522e-09  -5.175e-11   3.977e+01
 -1.691e+04   3.281e-02  -9.410e+00   9.960e-09  -4.130e-11   3.979e+01
Element     6
  1.543e+04  -6.796e-03  -7.966e+00  -9.352e-09   1.110e-10   3.957e+01
  1.010e+04  -6.795e-03  -7.966e+00  -6.119e-09   7.779e-11   3.960e+01
 -6.552e+00  -6.794e-03  -7.966e+00   6.176e-12   1.490e-11   3.964e+01
 -1.010e+04  -6.792e-03  -7.966e+00   6.125e-09  -4.798e-11   3.969e+01
 -1.542e+04  -6.792e-03  -7.966e+00   9.350e-09  -8.115e-11   3.971e+01
Element     7
  1.395e+04   8.393e-03  -6.451e+00  -8.534e-09   2.379e-10   3.949e+01
  9.127e+03   8.393e-03  -6.451e+00  -5.583e-09   1.608e-10   3.950e+01
 -3.645e+00   8.392e-03  -6.451e+00   7.239e-12   1.469e-11   3.954e+01
 -9.126e+03   8.392e-03  -6.451e+00   5.593e-09  -1.314e-10   3.957e+01
 -1.393e+04   8.392e-03  -6.451e+00   8.537e-09  -2.085e-10   3.959e+01
Element     8
  1.247e+04   2.525e-03  -5.172e+00  -7.677e-09   7.351e-11   3.938e+01
  8.159e+03   2.525e-03  -5.172e+00  -5.033e-09  -1.714e-12   3.940e+01
 -1.039e+00   2.525e-03  -5.172e+00  -2.615e-11  -1.443e-10   3.943e+01
 -8.155e+03   2.526e-03  -5.172e+00   4.977e-09  -2.869e-10   3.946e+01
 -1.245e+04   2.526e-03  -5.172e+00   7.615e-09  -3.621e-10   3.948e+01
Element     9
  1.099e+04   4.724e-03  -4.009e+00  -6.607e-09   4.566e-11   3.929e+01
  7.194e+03   4.724e-03  -4.009e+00  -4.317e-09   5.497e-11   3.930e+01
  1.269e+00   4.724e-03  -4.009e+00   2.149e-11   7.262e-11   3.933e+01
 -7.186e+03   4.724e-03  -4.009e+00   4.357e-09   9.028e-11   3.936e+01
 -1.098e+04   4.724e-03  -4.009e+00   6.643e-09   9.959e-11   3.937e+01
Element    10
  9.518e+03   3.833e-03  -3.006e+00  -5.545e-09  -2.466e-10   3.919e+01
  6.231e+03   3.833e-03  -3.006e+00  -3.652e-09  -2.849e-10   3.921e+01
  3.282e+00   3.833e-03  -3.006e+00  -6.544e-11  -3.577e-10   3.923e+01
 -6.221e+03   3.833e-03  -3.006e+00   3.519e-09  -4.305e-10   3.926e+01
 -9.503e+03   3.833e-03  -3.006e+00   5.409e-09  -4.689e-10   3.927e+01
Element    11
  8.049e+03   4.128e-03  -2.145e+00  -4.486e-09  -2.683e-10   3.911e+01
  5.270e+03   4.128e-03  -2.145e+00  -2.967e-09  -2.787e-10   3.912e+01
  5.001e+00   4.128e-03  -2.145e+00  -8.953e-11  -2.985e-10   3.914e+01
 -5.258e+03   4.128e-03  -2.145e+00   2.786e-09  -3.183e-10   3.916e+01
 -8.033e+03   4.128e-03  -2.145e+00   4.303e-09  -3.288e-10   3.918e+01
Element    12
  6.583e+03   3.972e-03  -1.431e+00  -3.165e-09   4.113e-10   3.904e+01
  4.311e+03   3.972e-03  -1.431e+00  -2.041e-09   3.869e-10   3.905e+01
  6.430e+00   3.972e-03  -1.431e+00   8.858e-11   3.407e-10   3.907e+01
 -4.297e+03   3.972e-03  -1.431e+00   2.218e-09   2.944e-10   3.908e+01
 -6.566e+03   3.972e-03  -1.431e+00   3.340e-09   2.700e-10   3.909e+01
Element    13
  5.119e+03   3.995e-03  -8.607e-01  -1.979e-09   4.542e-10   3.898e+01
  3.354e+03   3.995e-03  -8.607e-01  -1.256e-09   4.695e-10   3.899e+01
  7.571e+00   3.995e-03  -8.607e-01   1.134e-10   4.984e-10   3.900e+01
 -3.337e+03   3.995e-03  -8.607e-01   1.482e-09   5.274e-10   3.902e+01
 -5.102e+03   3.995e-03  -8.607e-01   2.204e-09   5.427e-10   3.902e+01
Element    14
  3.658e+03   3.957e-03  -4.340e-01  -1.311e-09   5.560e-11   3.894e+01
  2.397e+03   3.957e-03  -4.340e-01  -8.761e-10   6.813e-12   3.894e+01
  8.424e+00   3.957e-03  -4.340e-01  -5.214e-11  -8.568e-11   3.895e+01
 -2.380e+03   3.957e-03  -4.340e-01   7.716e-10  -1.782e-10   3.896e+01
 -3.640e+03   3.957e-03  -4.340e-01   1.206e-09  -2.270e-10   3.897e+01
Element    15
  2.198e+03   3.950e-03  -1.499e-01  -5.428e-10  -1.850e-10   3.891e+01
  1.442e+03   3.950e-03  -1.499e-01  -3.903e-10  -2.016e-10   3.891e+01
  8.992e+00   3.950e-03  -1.499e-01  -1.013e-10  -2.330e-10   3.892e+01
 -1.424e+03   3.950e-03  -1.499e-01   1.877e-10  -2.645e-10   3.893e+01
 -2.179e+03   3.950e-03  -1.499e-01   3.402e-10  -2.810e-10   3.893e+01
Element    16
  7.387e+02   3.941e-03  -8.034e-03  -1.013e-10   6.778e-10   3.890e+01
  4.868e+02   3.941e-03  -8.034e-03  -5.760e-11   5.763e-10   3.890e+01
  9.276e+00   3.941e-03  -8.034e-03   2.525e-11   3.837e-10   3.890e+01
 -4.682e+02   3.941e-03  -8.034e-03   1.081e-10   1.912e-10   3.890e+01
 -7.201e+02   3.941e-03  -8.034e-03   1.518e-10   8.966e-11   3.891e+01



TIME =   2.000e-01

Nodal Displacements

 Node          U1          U2          U3
    1   0.000e+00   0.000e+00   0.000e+00
    2   2.506e-03   2.280e-07   1.727e-02
    3   3.024e-03  -1.109e-07   6.783e-02
    4   9.958e-05   4.343e-08   1.492e-01
    5  -7.369e-03  -1.807e-08   2.588e-01
    6  -2.016e-02   5.736e-09   3.942e-01
    7  -3.876e-02  -3.377e-09   5.529e-01
    8  -6.340e-02   1.470e-10   7.325e-01
    9  -9.408e-02  -1.169e-09   9.306e-01
   10  -1.306e-01  -6.301e-10   1.145e+00
   11  -1.726e-01  -8.027e-10   1.373e+00
   12  -2.196e-01  -7.053e-10   1.613e+00
   13  -2.709e-01  -7.149e-10   1.863e+00
   14  -3.258e-01  -6.880e-10   2.121e+00
   15  -3.835e-01  -6.802e-10   2.384e+00
   16  -4.431e-01  -6.706e-10   2.651e+00
   17  -5.039e-01  -6.679e-10   2.920e+00
   18   0.000e+00   0.000e+00   0.000e+00
   19   2.506e-03  -2.280e-07   1.727e-02
   20   3.024e-03   1.109e-07   6.783e-02
   21   9.958e-05  -4.343e-08   1.492e-01
   22  -7.369e-03   1.807e-08   2.588e-01
   23  -2.016e-02  -5.736e-09   3.942e-01
   24  -3.876e-02   3.378e-09   5.529e-01
   25  -6.340e-02  -1.449e-10   7.325e-01
   26  -9.408e-02   1.172e-09   9.306e-01
   27  -1.306e-01   6.349e-10   1.145e+00
   28  -1.726e-01   8.093e-10   1.373e+00
   29  -2.196e-01   7.139e-10   1.613e+00
   30  -2.709e-01   7.257e-10   1.863e+00
   31  -3.258e-01   7.012e-10   2.121e+00
   32  -3.835e-01   6.960e-10   2.384e+00
   33  -4.431e-01   6.890e-10   2.651e+00
   34  -5.039e-01   6.890e-10   2.920e+00
   35   0.000e+00   0.000e+00   0.000e+00
   36  -2.991e-03   2.280e-07   1.712e-02
   37  -7.581e-03  -1.108e-07   6.726e-02
   38  -1.522e-02   4.340e-08   1.480e-01
   39  -2.700e-02  -1.805e-08   2.569e-01
   40  -4.371e-02   5.732e-09   3.914e-01
   41  -6.584e-02  -3.374e-09   5.492e-01
   42  -9.363e-02   1.470e-10   7.278e-01
   43  -1.271e-01  -1.168e-09   9.250e-01
   44  -1.660e-01  -6.293e-10   1.138e+00
   45  -2.101e-01  -8.017e-10   1.366e+00
   46  -2.588e-01  -7.044e-10   1.605e+00
   47  -3.115e-01  -7.139e-10   1.855e+00
   48  -3.675e-01  -6.870e-10   2.112e+00
   49  -4.260e-01  -6.792e-10   2.375e+00
   50  -4.861e-01  -6.696e-10   2.642e+00
   51  -5.470e-01  -6.669e-10   2.910e+00
   52   0.000e+00   0.000e+00   0.000e+00
   53  -2.991e-03  -2.280e-07   1.712e-02
   54  -7.581e-03   1.108e-07   6.726e-02
   55  -1.522e-02  -4.340e-08   1.480e-01
   56  -2.700e-02   1.805e-08   2.569e-01
   57  -4.371e-02  -5.730e-09   3.914e-01
   58  -6.584e-02   3.377e-09   5.492e-01
   59  -9.363e-02  -1.435e-10   7.278e-01
   60  -1.271e-01   1.173e-09   9.250e-01
   61  -1.660e-01   6.359e-10   1.138e+00
   62  -2.101e-01   8.101e-10   1.366e+00
   63  -2.588e-01   7.149e-10   1.605e+00
   64  -3.115e-01   7.267e-10   1.855e+00
   65  -3.675e-01   7.022e-10   2.112e+00
   66  -4.260e-01   6.970e-10   2.375e+00
   67  -4.861e-01   6.901e-10   2.642e+00
   68  -5.470e-01   6.900e-10   2.910e+00

Element Stress

        S11         S22         S33         S12         S23         S13
Element     1
  4.400e+04  -2.280e+00  -4.266e+01  -5.661e-07   8.042e-09   8.340e+01
  2.875e+04  -2.280e+00  -4.266e+01  -3.699e-07   8.528e-09   8.223e+01
 -9.458e+01  -2.280e+00  -4.266e+01   1.227e-09   9.449e-09   7.999e+01
 -2.886e+04  -2.280e+00  -4.266e+01   3.713e-07   1.037e-08   7.776e+01
 -4.399e+04  -2.280e+00  -4.266e+01   5.662e-07   1.086e-08   7.658e+01
Element     2
  4.100e+04  -1.171e+00  -6.383e+01  -9.783e-07   3.041e-09   7.805e+01
  2.680e+04  -1.171e+00  -6.383e+01  -6.394e-07   3.594e-09   7.865e+01
 -7.760e+01  -1.171e+00  -6.383e+01   1.898e-09   4.642e-09   7.977e+01
 -2.688e+04  -1.171e+00  -6.383e+01   6.414e-07   5.690e-09   8.090e+01
 -4.099e+04  -1.171e+00  -6.383e+01   9.781e-07   6.243e-09   8.149e+01
Element     3
  3.802e+04   6.747e-01  -4.517e+01  -8.761e-07  -4.433e-09   7.957e+01
  2.485e+04   6.746e-01  -4.517e+01  -5.727e-07  -4.025e-09   7.950e+01
 -6.188e+01   6.746e-01  -4.517e+01   1.459e-09  -3.252e-09   7.935e+01
 -2.492e+04   6.745e-01  -4.517e+01   5.742e-07  -2.479e-09   7.920e+01
 -3.800e+04   6.745e-01  -4.517e+01   8.758e-07  -2.071e-09   7.912e+01
Element     4
  3.506e+04  -2.536e-01  -4.202e+01  -8.820e-07  -6.957e-10   7.831e+01
  2.292e+04  -2.536e-01  -4.202e+01  -5.767e-07  -2.829e-10   7.848e+01
 -4.743e+01  -2.535e-01  -4.202e+01   1.243e-09   4.996e-10   7.879e+01
 -2.296e+04  -2.535e-01  -4.202e+01   5.778e-07   1.282e-09   7.910e+01
 -3.503e+04  -2.534e-01  -4.202e+01   8.815e-07   1.695e-09   7.927e+01
Element     5
  3.212e+04   1.233e-01  -3.388e+01  -8.450e-07  -2.498e-09   7.796e+01
  2.100e+04   1.233e-01  -3.388e+01  -5.525e-07  -2.160e-09   7.802e+01
 -3.425e+01   1.233e-01  -3.388e+01   9.521e-10  -1.520e-09   7.813e+01
 -2.103e+04   1.232e-01  -3.388e+01   5.533e-07  -8.793e-10   7.824e+01
 -3.209e+04   1.232e-01  -3.388e+01   8.442e-07  -5.416e-10   7.830e+01
Element     6
  2.921e+04  -2.359e-02  -2.852e+01  -7.988e-07  -2.346e-09   7.715e+01
  1.910e+04  -2.358e-02  -2.852e+01  -5.224e-07  -1.966e-09   7.724e+01
 -2.233e+01  -2.357e-02  -2.852e+01   7.386e-10  -1.244e-09   7.741e+01
 -1.911e+04  -2.356e-02  -2.852e+01   5.229e-07  -5.234e-10   7.757e+01
 -2.916e+04  -2.356e-02  -2.852e+01   7.979e-07  -1.430e-10   7.766e+01
Element     7
  2.632e+04   3.231e-02  -2.294e+01  -7.361e-07  -2.768e-09   7.647e+01
  1.722e+04   3.231e-02  -2.294e+01  -4.815e-07  -2.468e-09   7.653e+01
 -1.165e+01   3.231e-02  -2.294e+01   4.246e-10  -1.899e-09   7.666e+01
 -1.721e+04   3.230e-02  -2.294e+01   4.816e-07  -1.331e-09   7.678e+01
 -2.627e+04   3.230e-02  -2.294e+01   7.351e-07  -1.031e-09   7.685e+01
Element     8
  2.346e+04   1.024e-02  -1.829e+01  -6.598e-07  -2.666e-09   7.572e+01
  1.535e+04   1.025e-02  -1.829e+01  -4.317e-07  -2.487e-09   7.578e+01
 -2.162e+00   1.025e-02  -1.829e+01   1.591e-10  -2.149e-09   7.590e+01
 -1.533e+04   1.025e-02  -1.829e+01   4.314e-07  -1.811e-09   7.602e+01
 -2.341e+04   1.025e-02  -1.829e+01   6.586e-07  -1.633e-09   7.609e+01
Element     9
  2.063e+04   1.803e-02  -1.410e+01  -5.723e-07  -3.229e-09   7.502e+01
  1.350e+04   1.803e-02  -1.410e+01  -3.745e-07  -2.964e-09   7.508e+01
  6.155e+00   1.803e-02  -1.410e+01  -7.111e-11  -2.463e-09   7.518e+01
 -1.347e+04   1.803e-02  -1.410e+01   3.739e-07  -1.961e-09   7.528e+01
 -2.057e+04   1.803e-02  -1.410e+01   5.710e-07  -1.696e-09   7.533e+01
Element    10
  1.782e+04   1.438e-02  -1.052e+01  -4.767e-07  -3.266e-09   7.436e+01
  1.167e+04   1.438e-02  -1.052e+01  -3.121e-07  -3.119e-09   7.441e+01
  1.334e+01   1.438e-02  -1.052e+01  -4.154e-10  -2.841e-09   7.450e+01
 -1.163e+04   1.439e-02  -1.052e+01   3.109e-07  -2.562e-09   7.458e+01
 -1.777e+04   1.439e-02  -1.052e+01   4.750e-07  -2.416e-09   7.463e+01
Element    11
  1.504e+04   1.516e-02  -7.474e+00  -3.767e-07  -2.115e-09   7.377e+01
  9.852e+03   1.516e-02  -7.474e+00  -2.466e-07  -2.160e-09   7.381e+01
  1.942e+01   1.516e-02  -7.474e+00  -2.897e-10  -2.246e-09   7.388e+01
 -9.803e+03   1.516e-02  -7.474e+00   2.458e-07  -2.332e-09   7.395e+01
 -1.498e+04   1.516e-02  -7.474e+00   3.755e-07  -2.377e-09   7.399e+01
Element    12
  1.228e+04   1.430e-02  -4.968e+00  -2.783e-07  -3.416e-09   7.326e+01
  8.048e+03   1.430e-02  -4.968e+00  -1.825e-07  -3.115e-09   7.329e+01
  2.444e+01   1.430e-02  -4.968e+00  -7.821e-10  -2.547e-09   7.335e+01
 -7.993e+03   1.430e-02  -4.968e+00   1.807e-07  -1.978e-09   7.341e+01
 -1.222e+04   1.430e-02  -4.968e+00   2.764e-07  -1.678e-09   7.344e+01
Element    13
  9.542e+03   1.415e-02  -2.979e+00  -1.856e-07  -2.357e-09   7.283e+01
  6.255e+03   1.415e-02  -2.979e+00  -1.217e-07  -2.197e-09   7.286e+01
  2.842e+01   1.415e-02  -2.979e+00  -4.568e-10  -1.892e-09   7.290e+01
 -6.195e+03   1.415e-02  -2.979e+00   1.207e-07  -1.588e-09   7.295e+01
 -9.476e+03   1.415e-02  -2.979e+00   1.846e-07  -1.428e-09   7.297e+01
Element    14
  6.815e+03   1.383e-02  -1.499e+00  -1.059e-07  -1.241e-09   7.252e+01
  4.472e+03   1.383e-02  -1.499e+00  -6.947e-08  -1.120e-09   7.253e+01
  3.138e+01   1.383e-02  -1.499e+00  -4.870e-10  -8.904e-10   7.256e+01
 -4.407e+03   1.383e-02  -1.499e+00   6.847e-08  -6.610e-10   7.260e+01
 -6.748e+03   1.383e-02  -1.499e+00   1.048e-07  -5.401e-10   7.261e+01
Element    15
  4.099e+03   1.368e-02  -5.170e-01  -4.553e-08   9.853e-10   7.230e+01
  2.694e+03   1.368e-02  -5.170e-01  -2.995e-08   5.663e-10   7.231e+01
  3.335e+01   1.368e-02  -5.170e-01  -4.145e-10  -2.280e-10   7.233e+01
 -2.627e+03   1.368e-02  -5.170e-01   2.911e-08  -1.022e-09   7.235e+01
 -4.030e+03   1.368e-02  -5.170e-01   4.468e-08  -1.441e-09   7.236e+01
Element    16
  1.388e+03   1.358e-02  -2.767e-02  -1.304e-08   7.188e-11   7.221e+01
  9.208e+02   1.358e-02  -2.767e-02  -8.869e-09  -2.634e-10   7.221e+01
  3.433e+01   1.358e-02  -2.767e-02  -9.558e-10  -8.990e-10   7.222e+01
 -8.521e+02   1.358e-02  -2.767e-02   6.957e-09  -1.535e-09   7.222e+01
 -1.320e+03   1.358e-02  -2.767e-02   1.113e-08  -1.870e-09   7.223e+01



TIME =   3.000e-01

Nodal Displacements

 Node          U1          U2          U3
    1   0.000e+00   0.000e+00   0.000e+00
    2   3.414e-03   4.613e-07   2.458e-02
    3   2.918e-03  -2.249e-07   9.635e-02
    4  -4.367e-03   8.765e-08   2.114e-01
    5  -2.057e-02  -3.687e-08   3.658e-01
    6  -4.714e-02   1.138e-08   5.556e-01
    7  -8.494e-02  -7.033e-09   7.769e-01
    8  -1.343e-01   1.555e-10   1.026e+00
    9  -1.951e-01  -2.459e-09   1.300e+00
   10  -2.669e-01  -1.319e-09   1.594e+00
   11  -3.489e-01  -1.625e-09   1.907e+00
   12  -4.400e-01  -1.390e-09   2.234e+00
   13  -5.391e-01  -1.378e-09   2.574e+00
   14  -6.448e-01  -1.299e-09   2.923e+00
   15  -7.555e-01  -1.266e-09   3.279e+00
   16  -8.697e-01  -1.237e-09   3.640e+00
   17  -9.857e-01  -1.229e-09   4.003e+00
   18   0.000e+00   0.000e+00   0.000e+00
   19   3.414e-03  -4.613e-07   2.458e-02
   20   2.918e-03   2.249e-07   9.635e-02
   21  -4.367e-03  -8.765e-08   2.114e-01
   22  -2.057e-02   3.687e-08   3.658e-01
   23  -4.714e-02  -1.138e-08   5.556e-01
   24  -8.494e-02   7.034e-09   7.769e-01
   25  -1.343e-01  -1.532e-10   1.026e+00
   26  -1.951e-01   2.462e-09   1.300e+00
   27  -2.669e-01   1.324e-09   1.594e+00
   28  -3.489e-01   1.632e-09   1.907e+00
   29  -4.400e-01   1.399e-09   2.234e+00
   30  -5.391e-01   1.389e-09   2.574e+00
   31  -6.448e-01   1.313e-09   2.923e+00
   32  -7.555e-01   1.282e-09   3.279e+00
   33  -8.697e-01   1.256e-09   3.640e+00
   34  -9.857e-01   1.251e-09   4.003e+00
   35   0.000e+00   0.000e+00   0.000e+00
   36  -4.392e-03   4.614e-07   2.427e-02
   37  -1.209e-02  -2.247e-07   9.522e-02
   38  -2.596e-02   8.757e-08   2.091e-01
   39  -4.811e-02  -3.683e-08   3.619e-01
   40  -8.003e-02   1.136e-08   5.500e-01
   41  -1.226e-01  -7.027e-09   7.695e-01
   42  -1.761e-01   1.539e-10   1.017e+00
   43  -2.405e-01  -2.457e-09   1.289e+00
   44  -3.154e-01  -1.319e-09   1.582e+00
   45  -4.001e-01  -1.624e-09   1.893e+00
   46  -4.934e-01  -1.389e-09   2.219e+00
   47  -5.942e-01  -1.377e-09   2.557e+00
   48  -7.012e-01  -1.298e-09   2.906e+00
   49  -8.129e-01  -1.265e-09   3.261e+00
   50  -9.277e-01  -1.236e-09   3.621e+00
   51  -1.044e+00  -1.228e-09   3.984e+00
   52   0.000e+00   0.000e+00   0.000e+00
   53  -4.392e-03  -4.614e-07   2.427e-02
   54  -1.209e-02   2.247e-07   9.522e-02
   55  -2.596e-02  -8.757e-08   2.091e-01
   56  -4.811e-02   3.683e-08   3.619e-01
   57  -8.003e-02  -1.136e-08   5.500e-01
   58  -1.226e-01   7.029e-09   7.695e-01
   59  -1.761e-01  -1.505e-10   1.017e+00
   60  -2.405e-01   2.462e-09   1.289e+00
   61  -3.154e-01   1.325e-09   1.582e+00
   62  -4.001e-01   1.633e-09   1.893e+00
   63  -4.934e-01   1.400e-09   2.219e+00
   64  -5.942e-01   1.390e-09   2.557e+00
   65  -7.012e-01   1.313e-09   2.906e+00
   66  -8.129e-01   1.283e-09   3.261e+00
   67  -9.277e-01   1.257e-09   3.621e+00
   68  -1.044e+00   1.252e-09   3.984e+00

Element Stress

        S11         S22         S33         S12         S23         S13
Element     1
  6.250e+04  -4.613e+00  -8.592e+01  -4.139e-07   5.484e-09   1.268e+02
  4.081e+04  -4.613e+00  -8.592e+01  -2.703e-07   5.998e-09   1.245e+02
 -1.906e+02  -4.614e+00  -8.592e+01   1.273e-09   6.974e-09   1.200e+02
 -4.102e+04  -4.614e+00  -8.592e+01   2.717e-07   7.949e-09   1.155e+02
 -6.249e+04  -4.614e+00  -8.592e+01   4.139e-07   8.463e-09   1.131e+02
Element     2
  5.802e+04  -2.364e+00  -1.279e+02  -7.197e-07   1.843e-09   1.158e+02
  3.789e+04  -2.365e+00  -1.279e+02  -4.700e-07   2.433e-09   1.170e+02
 -1.545e+02  -2.365e+00  -1.279e+02   1.973e-09   3.552e-09   1.193e+02
 -3.805e+04  -2.366e+00  -1.279e+02   4.722e-07   4.671e-09   1.216e+02
 -5.799e+04  -2.366e+00  -1.279e+02   7.195e-07   5.262e-09   1.228e+02
Element     3
  5.357e+04   1.372e+00  -8.949e+01  -6.494e-07  -3.443e-09   1.185e+02
  3.499e+04   1.372e+00  -8.949e+01  -4.242e-07  -3.015e-09   1.183e+02
 -1.214e+02   1.372e+00  -8.949e+01   1.540e-09  -2.205e-09   1.180e+02
 -3.511e+04   1.372e+00  -8.949e+01   4.258e-07  -1.395e-09   1.178e+02
 -5.352e+04   1.372e+00  -8.949e+01   6.491e-07  -9.674e-10   1.176e+02
Element     4
  4.918e+04  -5.078e-01  -8.269e+01  -6.553e-07  -9.039e-10   1.154e+02
  3.213e+04  -5.077e-01  -8.269e+01  -4.282e-07  -4.299e-10   1.157e+02
 -9.127e+01  -5.076e-01  -8.269e+01   1.311e-09   4.685e-10   1.164e+02
 -3.221e+04  -5.074e-01  -8.269e+01   4.294e-07   1.367e-09   1.170e+02
 -4.912e+04  -5.073e-01  -8.269e+01   6.547e-07   1.841e-09   1.174e+02
Element     5
  4.485e+04   2.549e-01  -6.597e+01  -6.284e-07  -2.109e-09   1.141e+02
  2.932e+04   2.549e-01  -6.597e+01  -4.107e-07  -1.788e-09   1.142e+02
 -6.414e+01   2.548e-01  -6.597e+01   9.821e-10  -1.180e-09   1.144e+02
 -2.936e+04   2.547e-01  -6.597e+01   4.115e-07  -5.711e-10   1.147e+02
 -4.478e+04   2.547e-01  -6.597e+01   6.276e-07  -2.501e-10   1.148e+02
Element     6
  4.060e+04  -4.345e-02  -5.507e+01  -5.934e-07  -2.093e-09   1.118e+02
  2.655e+04  -4.344e-02  -5.507e+01  -3.880e-07  -1.742e-09   1.120e+02
 -3.993e+01  -4.341e-02  -5.507e+01   6.483e-10  -1.077e-09   1.123e+02
 -2.656e+04  -4.338e-02  -5.507e+01   3.883e-07  -4.112e-10   1.127e+02
 -4.052e+04  -4.336e-02  -5.507e+01   5.923e-07  -6.017e-11   1.128e+02
Element     7
  3.643e+04   6.879e-02  -4.391e+01  -5.456e-07  -2.736e-09   1.098e+02
  2.383e+04   6.878e-02  -4.391e+01  -3.569e-07  -2.301e-09   1.099e+02
 -1.852e+01   6.877e-02  -4.391e+01   3.701e-10  -1.478e-09   1.102e+02
 -2.381e+04   6.876e-02  -4.391e+01   3.568e-07  -6.541e-10   1.104e+02
 -3.634e+04   6.876e-02  -4.391e+01   5.444e-07  -2.196e-10   1.105e+02
Element     8
  3.235e+04   2.306e-02  -3.472e+01  -4.873e-07  -2.790e-09   1.076e+02
  2.116e+04   2.306e-02  -3.472e+01  -3.188e-07  -2.437e-09   1.078e+02
  2.116e-01   2.307e-02  -3.472e+01   1.404e-10  -1.769e-09   1.080e+02
 -2.112e+04   2.307e-02  -3.472e+01   3.184e-07  -1.101e-09   1.082e+02
 -3.224e+04   2.308e-02  -3.472e+01   4.861e-07  -7.483e-10   1.084e+02
Element     9
  2.834e+04   3.782e-02  -2.656e+01  -4.212e-07  -2.923e-09   1.056e+02
  1.855e+04   3.782e-02  -2.656e+01  -2.757e-07  -2.640e-09   1.057e+02
  1.641e+01   3.782e-02  -2.656e+01  -3.481e-10  -2.105e-09   1.059e+02
 -1.848e+04   3.782e-02  -2.656e+01   2.745e-07  -1.570e-09   1.061e+02
 -2.822e+04   3.782e-02  -2.656e+01   4.193e-07  -1.288e-09   1.062e+02
Element    10
  2.440e+04   2.950e-02  -1.968e+01  -3.494e-07  -2.709e-09   1.038e+02
  1.598e+04   2.951e-02  -1.968e+01  -2.288e-07  -2.439e-09   1.039e+02
  3.023e+01   2.951e-02  -1.968e+01  -2.663e-10  -1.927e-09   1.040e+02
 -1.589e+04   2.951e-02  -1.968e+01   2.279e-07  -1.416e-09   1.042e+02
 -2.428e+04   2.951e-02  -1.968e+01   3.481e-07  -1.146e-09   1.043e+02
Element    11
  2.054e+04   3.023e-02  -1.390e+01  -2.752e-07  -2.503e-09   1.021e+02
  1.345e+04   3.023e-02  -1.390e+01  -1.803e-07  -2.416e-09   1.022e+02
  4.179e+01   3.023e-02  -1.390e+01  -5.903e-10  -2.251e-09   1.023e+02
 -1.335e+04   3.023e-02  -1.390e+01   1.789e-07  -2.086e-09   1.024e+02
 -2.041e+04   3.023e-02  -1.390e+01   2.734e-07  -1.999e-09   1.025e+02
Element    12
  1.673e+04   2.778e-02  -9.188e+00  -2.036e-07  -3.301e-09   1.006e+02
  1.097e+04   2.778e-02  -9.188e+00  -1.337e-07  -3.013e-09   1.007e+02
  5.122e+01   2.778e-02  -9.188e+00  -1.308e-09  -2.468e-09   1.008e+02
 -1.085e+04   2.778e-02  -9.188e+00   1.309e-07  -1.923e-09   1.009e+02
 -1.660e+04   2.778e-02  -9.188e+00   2.006e-07  -1.635e-09   1.010e+02
Element    13
  1.297e+04   2.689e-02  -5.486e+00  -1.358e-07  -3.315e-09   9.946e+01
  8.511e+03   2.689e-02  -5.486e+00  -8.943e-08  -3.200e-09   9.950e+01
  5.862e+01   2.689e-02  -5.486e+00  -1.665e-09  -2.983e-09   9.959e+01
 -8.387e+03   2.689e-02  -5.486e+00   8.603e-08  -2.766e-09   9.967e+01
 -1.284e+04   2.689e-02  -5.486e+00   1.323e-07  -2.652e-09   9.972e+01
Element    14
  9.258e+03   2.580e-02  -2.751e+00  -7.880e-08  -4.527e-09   9.856e+01
  6.082e+03   2.580e-02  -2.751e+00  -5.225e-08  -4.125e-09   9.859e+01
  6.410e+01   2.580e-02  -2.751e+00  -1.948e-09  -3.363e-09   9.865e+01
 -5.950e+03   2.580e-02  -2.751e+00   4.833e-08  -2.600e-09   9.871e+01
 -9.121e+03   2.580e-02  -2.751e+00   7.483e-08  -2.198e-09   9.874e+01
Element    15
  5.571e+03   2.521e-02  -9.468e-01  -3.429e-08  -1.453e-09   9.797e+01
  3.670e+03   2.521e-02  -9.468e-01  -2.274e-08  -1.278e-09   9.798e+01
  6.771e+01   2.521e-02  -9.468e-01  -8.595e-10  -9.458e-10   9.802e+01
 -3.533e+03   2.521e-02  -9.468e-01   2.101e-08  -6.138e-10   9.805e+01
 -5.432e+03   2.521e-02  -9.468e-01   3.255e-08  -4.386e-10   9.807e+01
Element    16
  1.902e+03   2.486e-02  -5.061e-02  -1.063e-08  -1.199e-09   9.768e+01
  1.269e+03   2.486e-02  -5.061e-02  -7.565e-09  -1.113e-09   9.769e+01
  6.951e+01   2.486e-02  -5.061e-02  -1.753e-09  -9.504e-10   9.770e+01
 -1.130e+03   2.486e-02  -5.061e-02   4.059e-09  -7.874e-10   9.771e+01
 -1.762e+03   2.486e-02  -5.061e-02   7.124e-09  -7.014e-10   9.772e+01



TIME =   4.000e-01

Nodal Displacements

 Node          U1          U2          U3
    1   0.000e+00   0.000e+00   0.000e+00
    2   4.127e-03   7.299e-07   3.092e-02
    3   2.173e-03  -3.567e-07   1.209e-01
    4  -1.031e-02   1.383e-07   2.646e-01
    5  -3.651e-02  -5.891e-08   4.565e-01
    6  -7.849e-02   1.760e-08   6.911e-01
    7  -1.374e-01  -1.147e-08   9.632e-01
    8  -2.135e-01   1.850e-11   1.268e+00
    9  -3.066e-01  -4.027e-09   1.601e+00
   10  -4.157e-01  -2.136e-09   1.957e+00
   11  -5.395e-01  -2.545e-09   2.334e+00
   12  -6.765e-01  -2.109e-09   2.727e+00
   13  -8.249e-01  -2.038e-09   3.133e+00
   14  -9.825e-01  -1.873e-09   3.549e+00
   15  -1.147e+00  -1.792e-09   3.973e+00
   16  -1.317e+00  -1.728e-09   4.402e+00
   17  -1.489e+00  -1.709e-09   4.833e+00
   18   0.000e+00   0.000e+00   0.000e+00
   19   4.127e-03  -7.299e-07   3.092e-02
   20   2.173e-03   3.567e-07   1.209e-01
   21  -1.031e-02  -1.383e-07   2.646e-01
   22  -3.651e-02   5.891e-08   4.565e-01
   23  -7.849e-02  -1.760e-08   6.911e-01
   24  -1.374e-01   1.147e-08   9.632e-01
   25  -2.135e-01  -1.070e-11   1.268e+00
   26  -3.066e-01   4.039e-09   1.601e+00
   27  -4.157e-01   2.153e-09   1.957e+00
   28  -5.395e-01   2.567e-09   2.334e+00
   29  -6.765e-01   2.137e-09   2.727e+00
   30  -8.249e-01   2.074e-09   3.133e+00
   31  -9.825e-01   1.916e-09   3.549e+00
   32  -1.147e+00   1.844e-09   3.973e+00
   33  -1.317e+00   1.788e-09   4.402e+00
   34  -1.489e+00   1.776e-09   4.833e+00
   35   0.000e+00   0.000e+00   0.000e+00
   36  -5.671e-03   7.300e-07   3.043e-02
   37  -1.659e-02  -3.564e-07   1.192e-01
   38  -3.718e-02   1.381e-07   2.610e-01
   39  -7.061e-02  -5.883e-08   4.505e-01
   40  -1.190e-01   1.757e-08   6.825e-01
   41  -1.835e-01  -1.145e-08   9.520e-01
   42  -2.645e-01   1.538e-11   1.254e+00
   43  -3.617e-01  -4.024e-09   1.584e+00
   44  -4.743e-01  -2.135e-09   1.938e+00
   45  -6.010e-01  -2.543e-09   2.313e+00
   46  -7.404e-01  -2.107e-09   2.704e+00
   47  -8.907e-01  -2.036e-09   3.108e+00
   48  -1.050e+00  -1.871e-09   3.523e+00
   49  -1.215e+00  -1.790e-09   3.946e+00
   50  -1.386e+00  -1.726e-09   4.374e+00
   51  -1.558e+00  -1.707e-09   4.805e+00
   52   0.000e+00   0.000e+00   0.000e+00
   53  -5.671e-03  -7.300e-07   3.043e-02
   54  -1.659e-02   3.564e-07   1.192e-01
   55  -3.718e-02  -1.381e-07   2.610e-01
   56  -7.061e-02   5.883e-08   4.505e-01
   57  -1.190e-01  -1.757e-08   6.825e-01
   58  -1.835e-01   1.146e-08   9.520e-01
   59  -2.645e-01  -4.941e-12   1.254e+00
   60  -3.617e-01   4.039e-09   1.584e+00
   61  -4.743e-01   2.155e-09   1.938e+00
   62  -6.010e-01   2.569e-09   2.313e+00
   63  -7.404e-01   2.139e-09   2.704e+00
   64  -8.907e-01   2.076e-09   3.108e+00
   65  -1.050e+00   1.918e-09   3.523e+00
   66  -1.215e+00   1.845e-09   3.946e+00
   67  -1.386e+00   1.790e-09   4.374e+00
   68  -1.558e+00   1.778e-09   4.805e+00

Element Stress

        S11         S22         S33         S12         S23         S13
Element     1
  7.849e+04  -7.299e+00  -1.352e+02  -1.053e-06   1.313e-08   1.708e+02
  5.121e+04  -7.299e+00  -1.352e+02  -6.871e-07   1.480e-08   1.670e+02
 -3.001e+02  -7.300e+00  -1.352e+02   4.057e-09   1.799e-08   1.600e+02
 -5.154e+04  -7.300e+00  -1.352e+02   6.917e-07   2.117e-08   1.529e+02
 -7.847e+04  -7.300e+00  -1.352e+02   1.053e-06   2.284e-08   1.491e+02
Element     2
  7.251e+04  -3.732e+00  -2.001e+02  -1.844e-06   3.924e-09   1.529e+02
  4.733e+04  -3.733e+00  -2.001e+02  -1.203e-06   5.848e-09   1.549e+02
 -2.399e+02  -3.734e+00  -2.001e+02   6.297e-09   9.495e-09   1.586e+02
 -4.758e+04  -3.735e+00  -2.001e+02   1.210e-06   1.314e-08   1.622e+02
 -7.247e+04  -3.736e+00  -2.001e+02   1.843e-06   1.507e-08   1.642e+02
Element     3
  6.662e+04   2.185e+00  -1.381e+02  -1.679e-06  -9.634e-09   1.566e+02
  4.350e+04   2.184e+00  -1.381e+02  -1.097e-06  -8.181e-09   1.563e+02
 -1.851e+02   2.184e+00  -1.381e+02   4.860e-09  -5.428e-09   1.559e+02
 -4.368e+04   2.184e+00  -1.381e+02   1.102e-06  -2.674e-09   1.555e+02
 -6.655e+04   2.184e+00  -1.381e+02   1.678e-06  -1.222e-09   1.553e+02
Element     4
  6.084e+04  -7.935e-01  -1.266e+02  -1.699e-06  -2.994e-09   1.509e+02
  3.974e+04  -7.933e-01  -1.266e+02  -1.110e-06  -1.541e-09   1.515e+02
 -1.360e+02  -7.930e-01  -1.266e+02   4.102e-09   1.213e-09   1.525e+02
 -3.985e+04  -7.926e-01  -1.266e+02   1.114e-06   3.967e-09   1.535e+02
 -6.074e+04  -7.925e-01  -1.266e+02   1.697e-06   5.420e-09   1.541e+02
Element     5
  5.520e+04   4.131e-01  -9.979e+01  -1.631e-06  -5.694e-09   1.480e+02
  3.607e+04   4.130e-01  -9.979e+01  -1.066e-06  -4.578e-09   1.482e+02
 -9.230e+01   4.129e-01  -9.979e+01   3.214e-09  -2.464e-09   1.485e+02
 -3.612e+04   4.127e-01  -9.979e+01   1.068e-06  -3.502e-10   1.489e+02
 -5.508e+04   4.126e-01  -9.979e+01   1.629e-06   7.651e-10   1.491e+02
Element     6
  4.971e+04  -6.130e-02  -8.251e+01  -1.539e-06  -5.894e-09   1.435e+02
  3.250e+04  -6.126e-02  -8.251e+01  -1.006e-06  -4.846e-09   1.438e+02
 -5.392e+01  -6.120e-02  -8.251e+01   2.116e-09  -2.861e-09   1.443e+02
 -3.250e+04  -6.114e-02  -8.251e+01   1.007e-06  -8.760e-10   1.448e+02
 -4.957e+04  -6.110e-02  -8.251e+01   1.535e-06   1.712e-10   1.451e+02
Element     7
  4.439e+04   1.145e-01  -6.508e+01  -1.410e-06  -6.065e-09   1.394e+02
  2.903e+04   1.145e-01  -6.508e+01  -9.221e-07  -5.356e-09   1.396e+02
 -2.051e+01   1.145e-01  -6.508e+01   9.351e-10  -4.012e-09   1.399e+02
 -2.899e+04   1.145e-01  -6.508e+01   9.214e-07  -2.669e-09   1.403e+02
 -4.423e+04   1.145e-01  -6.508e+01   1.406e-06  -1.960e-09   1.405e+02
Element     8
  3.922e+04   4.019e-02  -5.099e+01  -1.255e-06  -6.317e-09   1.351e+02
  2.566e+04   4.019e-02  -5.099e+01  -8.209e-07  -5.672e-09   1.353e+02
  8.254e+00   4.020e-02  -5.099e+01   1.929e-10  -4.450e-09   1.357e+02
 -2.558e+04   4.021e-02  -5.099e+01   8.192e-07  -3.228e-09   1.361e+02
 -3.905e+04   4.022e-02  -5.099e+01   1.250e-06  -2.583e-09   1.362e+02
Element     9
  3.421e+04   6.178e-02  -3.865e+01  -1.081e-06  -8.428e-09   1.312e+02
  2.240e+04   6.178e-02  -3.865e+01  -7.075e-07  -7.545e-09   1.314e+02
  3.275e+01   6.177e-02  -3.865e+01  -1.213e-09  -5.872e-09   1.317e+02
 -2.228e+04   6.177e-02  -3.865e+01   7.035e-07  -4.199e-09   1.319e+02
 -3.403e+04   6.177e-02  -3.865e+01   1.075e-06  -3.316e-09   1.321e+02
Element    10
  2.935e+04   4.701e-02  -2.841e+01  -8.929e-07  -8.702e-09   1.276e+02
  1.922e+04   4.701e-02  -2.841e+01  -5.850e-07  -7.861e-09   1.277e+02
  5.332e+01   4.701e-02  -2.841e+01  -2.121e-09  -6.266e-09   1.279e+02
 -1.908e+04   4.701e-02  -2.841e+01   5.796e-07  -4.672e-09   1.282e+02
 -2.916e+04   4.701e-02  -2.841e+01   8.860e-07  -3.831e-09   1.283e+02
Element    11
  2.462e+04   4.679e-02  -1.992e+01  -6.993e-07  -5.666e-09   1.243e+02
  1.613e+04   4.679e-02  -1.992e+01  -4.581e-07  -5.313e-09   1.244e+02
  7.030e+01   4.679e-02  -1.992e+01  -1.438e-09  -4.645e-09   1.246e+02
 -1.597e+04   4.679e-02  -1.992e+01   4.545e-07  -3.976e-09   1.248e+02
 -2.442e+04   4.679e-02  -1.992e+01   6.947e-07  -3.623e-09   1.249e+02
Element    12
  2.000e+04   4.179e-02  -1.309e+01  -5.135e-07  -6.178e-09   1.216e+02
  1.312e+04   4.179e-02  -1.309e+01  -3.369e-07  -5.576e-09   1.216e+02
  8.398e+01   4.179e-02  -1.309e+01  -2.480e-09  -4.434e-09   1.218e+02
 -1.293e+04   4.179e-02  -1.309e+01   3.315e-07  -3.293e-09   1.220e+02
 -1.979e+04   4.179e-02  -1.309e+01   5.076e-07  -2.691e-09   1.220e+02
Element    13
  1.548e+04   3.951e-02  -7.777e+00  -3.421e-07  -6.325e-09   1.193e+02
  1.016e+04   3.951e-02  -7.777e+00  -2.247e-07  -5.475e-09   1.194e+02
  9.462e+01   3.951e-02  -7.777e+00  -2.248e-09  -3.864e-09   1.195e+02
 -9.963e+03   3.951e-02  -7.777e+00   2.200e-07  -2.253e-09   1.196e+02
 -1.526e+04   3.951e-02  -7.777e+00   3.371e-07  -1.403e-09   1.197e+02
Element    14
  1.103e+04   3.713e-02  -3.886e+00  -1.935e-07  -2.767e-09   1.176e+02
  7.256e+03   3.713e-02  -3.886e+00  -1.274e-07  -2.702e-09   1.176e+02
  1.024e+02   3.713e-02  -3.886e+00  -2.215e-09  -2.577e-09   1.177e+02
 -7.046e+03   3.713e-02  -3.886e+00   1.229e-07  -2.452e-09   1.178e+02
 -1.081e+04   3.713e-02  -3.886e+00   1.889e-07  -2.387e-09   1.178e+02
Element    15
  6.641e+03   3.576e-02  -1.334e+00  -8.629e-08  -3.667e-09   1.164e+02
  4.384e+03   3.576e-02  -1.334e+00  -5.775e-08  -3.415e-09   1.165e+02
  1.075e+02   3.576e-02  -1.334e+00  -3.682e-09  -2.937e-09   1.165e+02
 -4.167e+03   3.576e-02  -1.334e+00   5.037e-08  -2.459e-09   1.166e+02
 -6.422e+03   3.576e-02  -1.334e+00   7.887e-08  -2.207e-09   1.166e+02
Element    16
  2.284e+03   3.501e-02  -7.117e-02  -2.659e-08  -1.595e-09   1.159e+02
  1.533e+03   3.501e-02  -7.117e-02  -1.883e-08  -1.563e-09   1.159e+02
  1.100e+02   3.501e-02  -7.117e-02  -4.130e-09  -1.502e-09   1.159e+02
 -1.313e+03   3.501e-02  -7.117e-02   1.057e-08  -1.441e-09   1.159e+02
 -2.063e+03   3.501e-02  -7.117e-02   1.833e-08  -1.410e-09   1.159e+02



TIME =   5.000e-01

Nodal Displacements

 Node          U1          U2          U3
    1   0.000e+00   0.000e+00   0.000e+00
    2   4.693e-03   1.014e-06   3.644e-02
    3   1.038e-03  -4.972e-07   1.422e-01
    4  -1.698e-02   1.915e-07   3.103e-01
    5  -5.354e-02  -8.271e-08   5.336e-01
    6  -1.112e-01   2.390e-08   8.052e-01
    7  -1.912e-01  -1.637e-08   1.118e+00
    8  -2.938e-01  -2.201e-10   1.467e+00
    9  -4.183e-01  -5.689e-09   1.846e+00
   10  -5.633e-01  -2.912e-09   2.250e+00
   11  -7.270e-01  -3.349e-09   2.675e+00
   12  -9.073e-01  -2.627e-09   3.116e+00
   13  -1.102e+00  -2.427e-09   3.571e+00
   14  -1.308e+00  -2.109e-09   4.037e+00
   15  -1.522e+00  -1.920e-09   4.509e+00
   16  -1.743e+00  -1.766e-09   4.986e+00
   17  -1.967e+00  -1.684e-09   5.466e+00
   18   0.000e+00   0.000e+00   0.000e+00
   19   4.693e-03  -1.014e-06   3.644e-02
   20   1.038e-03   4.972e-07   1.422e-01
   21  -1.698e-02  -1.915e-07   3.103e-01
   22  -5.354e-02   8.272e-08   5.336e-01
   23  -1.112e-01  -2.387e-08   8.052e-01
   24  -1.912e-01   1.643e-08   1.118e+00
   25  -2.938e-01   3.265e-10   1.467e+00
   26  -4.183e-01   5.850e-09   1.846e+00
   27  -5.633e-01   3.137e-09   2.250e+00
   28  -7.270e-01   3.650e-09   2.675e+00
   29  -9.073e-01   3.013e-09   3.116e+00
   30  -1.102e+00   2.906e-09   3.571e+00
   31  -1.308e+00   2.687e-09   4.037e+00
   32  -1.522e+00   2.603e-09   4.509e+00
   33  -1.743e+00   2.556e-09   4.986e+00
   34  -1.967e+00   2.583e-09   5.466e+00
   35   0.000e+00   0.000e+00   0.000e+00
   36  -6.832e-03   1.015e-06   3.577e-02
   37  -2.095e-02  -4.967e-07   1.398e-01
   38  -4.831e-02   1.912e-07   3.053e-01
   39  -9.309e-02  -8.256e-08   5.255e-01
   40  -1.579e-01   2.386e-08   7.936e-01
   41  -2.441e-01  -1.634e-08   1.103e+00
   42  -3.519e-01  -2.122e-10   1.449e+00
   43  -4.808e-01  -5.670e-09   1.824e+00
   44  -6.295e-01  -2.894e-09   2.225e+00
   45  -7.963e-01  -3.330e-09   2.647e+00
   46  -9.790e-01  -2.607e-09   3.086e+00
   47  -1.175e+00  -2.406e-09   3.539e+00
   48  -1.383e+00  -2.088e-09   4.003e+00
   49  -1.598e+00  -1.899e-09   4.474e+00
   50  -1.820e+00  -1.745e-09   4.951e+00
   51  -2.044e+00  -1.663e-09   5.430e+00
   52   0.000e+00   0.000e+00   0.000e+00
   53  -6.832e-03  -1.015e-06   3.577e-02
   54  -2.095e-02   4.967e-07   1.398e-01
   55  -4.831e-02  -1.912e-07   3.053e-01
   56  -9.309e-02   8.259e-08   5.255e-01
   57  -1.579e-01  -2.381e-08   7.936e-01
   58  -2.441e-01   1.643e-08   1.103e+00
   59  -3.519e-01   3.495e-10   1.449e+00
   60  -4.808e-01   5.864e-09   1.824e+00
   61  -6.295e-01   3.157e-09   2.225e+00
   62  -7.963e-01   3.670e-09   2.647e+00
   63  -9.790e-01   3.033e-09   3.086e+00
   64  -1.175e+00   2.927e-09   3.539e+00
   65  -1.383e+00   2.708e-09   4.003e+00
   66  -1.598e+00   2.624e-09   4.474e+00
   67  -1.820e+00   2.577e-09   4.951e+00
   68  -2.044e+00   2.604e-09   5.430e+00

Element Stress

        S11         S22         S33         S12         S23         S13
Element     1
  9.237e+04  -1.014e+01  -1.868e+02  -1.205e-05   1.402e-07   2.149e+02
  6.023e+04  -1.014e+01  -1.868e+02  -7.857e-06   1.638e-07   2.097e+02
 -4.150e+02  -1.015e+01  -1.868e+02   5.454e-08   2.084e-07   1.999e+02
 -6.069e+04  -1.015e+01  -1.868e+02   7.920e-06   2.531e-07   1.901e+02
 -9.234e+04  -1.015e+01  -1.868e+02   1.205e-05   2.767e-07   1.850e+02
Element     2
  8.491e+04  -5.172e+00  -2.748e+02  -2.129e-05   3.862e-08   1.896e+02
  5.539e+04  -5.173e+00  -2.748e+02  -1.389e-05   6.538e-08   1.923e+02
 -3.267e+02  -5.176e+00  -2.748e+02   8.469e-08   1.161e-07   1.975e+02
 -5.574e+04  -5.178e+00  -2.748e+02   1.398e-05   1.668e-07   2.027e+02
 -8.485e+04  -5.179e+00  -2.748e+02   2.128e-05   1.936e-07   2.054e+02
Element     3
  7.759e+04   3.057e+00  -1.869e+02  -1.971e-05  -1.141e-07   1.938e+02
  5.064e+04   3.057e+00  -1.869e+02  -1.286e-05  -9.389e-08   1.935e+02
 -2.472e+02   3.056e+00  -1.869e+02   6.557e-08  -5.564e-08   1.930e+02
 -5.088e+04   3.055e+00  -1.869e+02   1.293e-05  -1.739e-08   1.924e+02
 -7.748e+04   3.055e+00  -1.869e+02   1.969e-05   2.784e-09   1.921e+02
Element     4
  7.047e+04  -1.088e+00  -1.699e+02  -2.012e-05  -4.257e-08   1.850e+02
  4.601e+04  -1.088e+00  -1.699e+02  -1.314e-05  -2.228e-08   1.857e+02
 -1.768e+02  -1.087e+00  -1.699e+02   5.475e-08   1.617e-08   1.872e+02
 -4.615e+04  -1.086e+00  -1.699e+02   1.319e-05   5.463e-08   1.886e+02
 -7.032e+04  -1.086e+00  -1.699e+02   2.009e-05   7.491e-08   1.894e+02
Element     5
  6.357e+04   5.883e-01  -1.321e+02  -1.940e-05  -7.605e-08   1.798e+02
  4.153e+04   5.881e-01  -1.321e+02  -1.267e-05  -6.055e-08   1.800e+02
 -1.152e+02   5.878e-01  -1.321e+02   4.045e-08  -3.117e-08   1.806e+02
 -4.159e+04   5.876e-01  -1.321e+02   1.270e-05  -1.791e-09   1.811e+02
 -6.340e+04   5.874e-01  -1.321e+02   1.936e-05   1.371e-08   1.814e+02
Element     6
  5.694e+04  -7.484e-02  -1.082e+02  -1.833e-05  -7.536e-08   1.724e+02
  3.722e+04  -7.478e-02  -1.082e+02  -1.198e-05  -6.039e-08   1.728e+02
 -6.188e+01  -7.468e-02  -1.082e+02   2.612e-08  -3.201e-08   1.735e+02
 -3.720e+04  -7.457e-02  -1.082e+02   1.199e-05  -3.623e-09   1.743e+02
 -5.674e+04  -7.451e-02  -1.082e+02   1.828e-05   1.135e-08   1.746e+02
Element     7
  5.057e+04   1.668e-01  -8.434e+01  -1.680e-05  -7.918e-08   1.656e+02
  3.307e+04   1.667e-01  -8.434e+01  -1.098e-05  -6.771e-08   1.659e+02
 -1.625e+01   1.667e-01  -8.434e+01   1.179e-08  -4.598e-08   1.664e+02
 -3.299e+04   1.667e-01  -8.434e+01   1.097e-05  -2.425e-08   1.669e+02
 -5.035e+04   1.666e-01  -8.434e+01   1.674e-05  -1.278e-08   1.672e+02
Element     8
  4.446e+04   6.043e-02  -6.543e+01  -1.493e-05  -8.372e-08   1.588e+02
  2.909e+04   6.044e-02  -6.543e+01  -9.766e-06  -7.284e-08   1.591e+02
  2.241e+01   6.045e-02  -6.543e+01  -1.370e-09  -5.222e-08   1.595e+02
 -2.896e+04   6.047e-02  -6.543e+01   9.735e-06  -3.160e-08   1.600e+02
 -4.422e+04   6.048e-02  -6.543e+01   1.486e-05  -2.072e-08   1.603e+02
Element     9
  3.860e+04   8.794e-02  -4.911e+01  -1.281e-05  -8.252e-08   1.525e+02
  2.527e+04   8.794e-02  -4.911e+01  -8.388e-06  -7.388e-08   1.527e+02
  5.478e+01   8.793e-02  -4.911e+01  -1.331e-08  -5.749e-08   1.531e+02
 -2.510e+04   8.793e-02  -4.911e+01   8.341e-06  -4.111e-08   1.534e+02
 -3.835e+04   8.793e-02  -4.911e+01   1.274e-05  -3.247e-08   1.536e+02
Element    10
  3.298e+04   6.524e-02  -3.580e+01  -1.056e-05  -8.265e-08   1.467e+02
  2.160e+04   6.524e-02  -3.580e+01  -6.918e-06  -7.479e-08   1.468e+02
  8.155e+01   6.525e-02  -3.580e+01  -2.400e-08  -5.987e-08   1.472e+02
 -2.140e+04   6.525e-02  -3.580e+01   6.855e-06  -4.496e-08   1.475e+02
 -3.271e+04   6.525e-02  -3.580e+01   1.048e-05  -3.709e-08   1.476e+02
Element    11
  2.756e+04   6.320e-02  -2.490e+01  -8.271e-06  -7.778e-08   1.415e+02
  1.807e+04   6.320e-02  -2.490e+01  -5.423e-06  -7.115e-08   1.417e+02
  1.033e+02   6.320e-02  -2.490e+01  -3.144e-08  -5.859e-08   1.419e+02
 -1.783e+04   6.320e-02  -2.490e+01   5.350e-06  -4.603e-08   1.422e+02
 -2.728e+04   6.320e-02  -2.490e+01   8.186e-06  -3.941e-08   1.423e+02
Element    12
  2.232e+04   5.486e-02  -1.626e+01  -6.059e-06  -7.387e-08   1.372e+02
  1.465e+04   5.486e-02  -1.626e+01  -3.979e-06  -6.770e-08   1.373e+02
  1.207e+02   5.486e-02  -1.626e+01  -3.944e-08  -5.600e-08   1.375e+02
 -1.439e+04   5.486e-02  -1.626e+01   3.894e-06  -4.430e-08   1.377e+02
 -2.203e+04   5.486e-02  -1.626e+01   5.967e-06  -3.812e-08   1.378e+02
Element    13
  1.724e+04   5.064e-02  -9.611e+00  -4.030e-06  -6.374e-08   1.336e+02
  1.133e+04   5.065e-02  -9.611e+00  -2.653e-06  -5.880e-08   1.337e+02
  1.340e+02   5.065e-02  -9.611e+00  -4.393e-08  -4.942e-08   1.339e+02
 -1.105e+04   5.065e-02  -9.611e+00   2.562e-06  -4.005e-08   1.340e+02
 -1.694e+04   5.065e-02  -9.611e+00   3.936e-06  -3.510e-08   1.341e+02
Element    14
  1.227e+04   4.660e-02  -4.783e+00  -2.308e-06  -5.174e-08   1.310e+02
  8.082e+03   4.660e-02  -4.783e+00  -1.527e-06  -4.731e-08   1.310e+02
  1.437e+02   4.660e-02  -4.783e+00  -4.754e-08  -3.893e-08   1.311e+02
 -7.789e+03   4.660e-02  -4.783e+00   1.431e-06  -3.054e-08   1.312e+02
 -1.197e+04   4.660e-02  -4.783e+00   2.211e-06  -2.612e-08   1.313e+02
Element    15
  7.391e+03   4.422e-02  -1.637e+00  -1.020e-06  -2.841e-08   1.292e+02
  4.890e+03   4.422e-02  -1.637e+00  -6.839e-07  -2.642e-08   1.292e+02
  1.500e+02   4.422e-02  -1.637e+00  -4.724e-08  -2.265e-08   1.293e+02
 -4.587e+03   4.422e-02  -1.637e+00   5.891e-07  -1.887e-08   1.294e+02
 -7.086e+03   4.422e-02  -1.637e+00   9.246e-07  -1.688e-08   1.294e+02
Element    16
  2.560e+03   4.295e-02  -8.721e-02  -3.145e-07  -1.538e-08   1.283e+02
  1.729e+03   4.295e-02  -8.721e-02  -2.228e-07  -1.442e-08   1.284e+02
  1.531e+02   4.295e-02  -8.721e-02  -4.891e-08  -1.260e-08   1.284e+02
 -1.423e+03   4.295e-02  -8.721e-02   1.249e-07  -1.079e-08   1.284e+02
 -2.254e+03   4.295e-02  -8.721e-02   2.166e-07  -9.828e-09   1.284e+02



TIME =   6.000e-01

Nodal Displacements

 Node          U1          U2          U3
    1   0.000e+00   0.000e+00   0.000e+00
    2   5.150e-03   1.305e-06   4.130e-02
    3  -3.305e-04  -6.414e-07   1.609e-01
    4  -2.396e-02   2.454e-07   3.500e-01
    5  -7.079e-02  -1.075e-07   5.999e-01
    6  -1.437e-01   3.002e-08   9.022e-01
    7  -2.441e-01  -2.163e-08   1.249e+00
    8  -3.717e-01  -6.518e-10   1.633e+00
    9  -5.255e-01  -7.544e-09   2.048e+00
   10  -7.037e-01  -3.853e-09   2.489e+00
   11  -9.039e-01  -4.337e-09   2.950e+00
   12  -1.123e+00  -3.357e-09   3.428e+00
   13  -1.359e+00  -3.077e-09   3.919e+00
   14  -1.608e+00  -2.665e-09   4.420e+00
   15  -1.867e+00  -2.437e-09   4.928e+00
   16  -2.133e+00  -2.267e-09   5.440e+00
   17  -2.402e+00  -2.202e-09   5.954e+00
   18   0.000e+00   0.000e+00   0.000e+00
   19   5.150e-03  -1.305e-06   4.130e-02
   20  -3.305e-04   6.414e-07   1.609e-01
   21  -2.396e-02  -2.454e-07   3.500e-01
   22  -7.079e-02   1.075e-07   5.999e-01
   23  -1.437e-01  -3.000e-08   9.022e-01
   24  -2.441e-01   2.166e-08   1.249e+00
   25  -3.717e-01   7.029e-10   1.633e+00
   26  -5.255e-01   7.621e-09   2.048e+00
   27  -7.037e-01   3.960e-09   2.489e+00
   28  -9.039e-01   4.479e-09   2.950e+00
   29  -1.123e+00   3.538e-09   3.428e+00
   30  -1.359e+00   3.300e-09   3.919e+00
   31  -1.608e+00   2.934e-09   4.420e+00
   32  -1.867e+00   2.754e-09   4.928e+00
   33  -2.133e+00   2.633e-09   5.440e+00
   34  -2.402e+00   2.618e-09   5.954e+00
   35   0.000e+00   0.000e+00   0.000e+00
   36  -7.892e-03   1.305e-06   4.044e-02
   37  -2.511e-02  -6.407e-07   1.577e-01
   38  -5.909e-02   2.450e-07   3.436e-01
   39  -1.149e-01  -1.073e-07   5.897e-01
   40  -1.956e-01   2.995e-08   8.877e-01
   41  -3.024e-01  -2.160e-08   1.230e+00
   42  -4.355e-01  -6.567e-10   1.610e+00
   43  -5.938e-01  -7.534e-09   2.021e+00
   44  -7.757e-01  -3.847e-09   2.458e+00
   45  -9.789e-01  -4.329e-09   2.917e+00
   46  -1.201e+00  -3.349e-09   3.392e+00
   47  -1.438e+00  -3.068e-09   3.880e+00
   48  -1.689e+00  -2.657e-09   4.379e+00
   49  -1.949e+00  -2.428e-09   4.886e+00
   50  -2.215e+00  -2.258e-09   5.397e+00
   51  -2.485e+00  -2.193e-09   5.911e+00
   52   0.000e+00   0.000e+00   0.000e+00
   53  -7.892e-03  -1.305e-06   4.044e-02
   54  -2.511e-02   6.407e-07   1.577e-01
   55  -5.909e-02  -2.450e-07   3.436e-01
   56  -1.149e-01   1.073e-07   5.897e-01
   57  -1.956e-01  -2.992e-08   8.877e-01
   58  -3.024e-01   2.164e-08   1.230e+00
   59  -4.355e-01   7.207e-10   1.610e+00
   60  -5.938e-01   7.625e-09   2.021e+00
   61  -7.757e-01   3.969e-09   2.458e+00
   62  -9.789e-01   4.487e-09   2.917e+00
   63  -1.201e+00   3.547e-09   3.392e+00
   64  -1.438e+00   3.309e-09   3.880e+00
   65  -1.689e+00   2.943e-09   4.379e+00
   66  -1.949e+00   2.763e-09   4.886e+00
   67  -2.215e+00   2.642e-09   5.397e+00
   68  -2.485e+00   2.627e-09   5.911e+00

Element Stress

        S11         S22         S33         S12         S23         S13
Element     1
  1.046e+05  -1.305e+01  -2.387e+02  -5.116e-06   5.593e-08   2.590e+02
  6.815e+04  -1.305e+01  -2.387e+02  -3.334e-06   6.757e-08   2.524e+02
 -5.310e+02  -1.305e+01  -2.387e+02   2.617e-08   8.965e-08   2.399e+02
 -6.874e+04  -1.305e+01  -2.387e+02   3.364e-06   1.117e-07   2.274e+02
 -1.045e+05  -1.305e+01  -2.387e+02   5.116e-06   1.234e-07   2.208e+02
Element     2
  9.564e+04  -6.633e+00  -3.492e+02  -9.096e-06   1.290e-08   2.259e+02
  6.236e+04  -6.635e+00  -3.492e+02  -5.931e-06   2.596e-08   2.294e+02
 -4.115e+02  -6.638e+00  -3.492e+02   4.060e-08   5.072e-08   2.362e+02
 -6.280e+04  -6.642e+00  -3.492e+02   5.975e-06   7.548e-08   2.429e+02
 -9.555e+04  -6.644e+00  -3.492e+02   9.090e-06   8.854e-08   2.464e+02
Element     3
  8.691e+04   3.960e+00  -2.339e+02  -8.442e-06  -5.248e-08   2.303e+02
  5.670e+04   3.959e+00  -2.339e+02  -5.508e-06  -4.257e-08   2.300e+02
 -3.050e+02   3.958e+00  -2.339e+02   3.120e-08  -2.379e-08   2.293e+02
 -5.699e+04   3.957e+00  -2.339e+02   5.539e-06  -5.002e-09   2.286e+02
 -8.676e+04   3.957e+00  -2.339e+02   8.432e-06   4.908e-09   2.283e+02
Element     4
  7.847e+04  -1.380e+00  -2.108e+02  -8.585e-06  -2.275e-08   2.177e+02
  5.123e+04  -1.379e+00  -2.108e+02  -5.604e-06  -1.277e-08   2.187e+02
 -2.119e+02  -1.378e+00  -2.108e+02   2.553e-08   6.144e-09   2.206e+02
 -5.139e+04  -1.377e+00  -2.108e+02   5.626e-06   2.506e-08   2.225e+02
 -7.828e+04  -1.377e+00  -2.108e+02   8.569e-06   3.504e-08   2.235e+02
Element     5
  7.039e+04   7.747e-01  -1.617e+02  -8.254e-06  -3.587e-08   2.097e+02
  4.598e+04   7.744e-01  -1.617e+02  -5.390e-06  -2.831e-08   2.100e+02
 -1.317e+02   7.740e-01  -1.617e+02   1.845e-08  -1.399e-08   2.107e+02
 -4.603e+04   7.736e-01  -1.617e+02   5.403e-06   3.327e-10   2.114e+02
 -7.016e+04   7.734e-01  -1.617e+02   8.233e-06   7.888e-09   2.118e+02
Element     6
  6.268e+04  -8.364e-02  -1.310e+02  -7.756e-06  -3.679e-08   1.990e+02
  4.097e+04  -8.355e-02  -1.310e+02  -5.068e-06  -2.921e-08   1.995e+02
 -6.330e+01  -8.339e-02  -1.310e+02   1.117e-08  -1.482e-08   2.004e+02
 -4.093e+04  -8.322e-02  -1.310e+02   5.070e-06  -4.383e-10   2.013e+02
 -6.242e+04  -8.313e-02  -1.310e+02   7.730e-06   7.149e-09   2.018e+02
Element     7
  5.536e+04   2.233e-01  -1.009e+02  -7.067e-06  -3.712e-08   1.891e+02
  3.621e+04   2.232e-01  -1.009e+02  -4.620e-06  -3.138e-08   1.894e+02
 -5.762e+00   2.232e-01  -1.009e+02   4.863e-09  -2.050e-08   1.901e+02
 -3.609e+04   2.231e-01  -1.009e+02   4.613e-06  -9.621e-09   1.907e+02
 -5.507e+04   2.231e-01  -1.009e+02   7.038e-06  -3.882e-09   1.911e+02
Element     8
  4.843e+04   8.260e-02  -7.751e+01  -6.243e-06  -3.838e-08   1.793e+02
  3.169e+04   8.261e-02  -7.751e+01  -4.084e-06  -3.286e-08   1.796e+02
  4.217e+01   8.264e-02  -7.751e+01  -1.321e-09  -2.239e-08   1.802e+02
 -3.151e+04   8.267e-02  -7.751e+01   4.069e-06  -1.192e-08   1.807e+02
 -4.811e+04   8.268e-02  -7.751e+01   6.211e-06  -6.398e-09   1.810e+02
Element     9
  4.185e+04   1.149e-01  -5.761e+01  -5.330e-06  -3.754e-08   1.702e+02
  2.741e+04   1.149e-01  -5.761e+01  -3.490e-06  -3.322e-08   1.705e+02
  8.167e+01   1.149e-01  -5.761e+01  -7.718e-09  -2.504e-08   1.709e+02
 -2.717e+04   1.149e-01  -5.761e+01   3.465e-06  -1.686e-08   1.714e+02
 -4.151e+04   1.149e-01  -5.761e+01   5.293e-06  -1.254e-08   1.716e+02
Element    10
  3.560e+04   8.314e-02  -4.163e+01  -4.373e-06  -3.814e-08   1.620e+02
  2.333e+04   8.315e-02  -4.163e+01  -2.866e-06  -3.387e-08   1.622e+02
  1.138e+02   8.315e-02  -4.163e+01  -1.307e-08  -2.578e-08   1.626e+02
 -2.305e+04   8.316e-02  -4.163e+01   2.833e-06  -1.769e-08   1.630e+02
 -3.525e+04   8.316e-02  -4.163e+01   4.332e-06  -1.343e-08   1.632e+02
Element    11
  2.964e+04   7.856e-02  -2.873e+01  -3.410e-06  -3.468e-08   1.548e+02
  1.944e+04   7.856e-02  -2.873e+01  -2.237e-06  -3.127e-08   1.550e+02
  1.396e+02   7.856e-02  -2.873e+01  -1.621e-08  -2.480e-08   1.553e+02
 -1.913e+04   7.856e-02  -2.873e+01   2.200e-06  -1.833e-08   1.556e+02
 -2.928e+04   7.856e-02  -2.873e+01   3.367e-06  -1.492e-08   1.557e+02
Element    12
  2.394e+04   6.636e-02  -1.864e+01  -2.488e-06  -3.271e-08   1.487e+02
  1.572e+04   6.636e-02  -1.864e+01  -1.635e-06  -2.936e-08   1.489e+02
  1.599e+02   6.636e-02  -1.864e+01  -1.804e-08  -2.303e-08   1.491e+02
 -1.538e+04   6.637e-02  -1.864e+01   1.596e-06  -1.670e-08   1.493e+02
 -2.356e+04   6.637e-02  -1.864e+01   2.446e-06  -1.336e-08   1.495e+02
Element    13
  1.845e+04   5.988e-02  -1.096e+01  -1.653e-06  -2.790e-08   1.438e+02
  1.213e+04   5.988e-02  -1.096e+01  -1.090e-06  -2.561e-08   1.439e+02
  1.753e+02   5.988e-02  -1.096e+01  -2.229e-08  -2.126e-08   1.441e+02
 -1.177e+04   5.989e-02  -1.096e+01   1.044e-06  -1.691e-08   1.443e+02
 -1.806e+04   5.989e-02  -1.096e+01   1.606e-06  -1.461e-08   1.444e+02
Element    14
  1.311e+04   5.395e-02  -5.431e+00  -9.470e-07  -2.133e-08   1.402e+02
  8.648e+03   5.395e-02  -5.431e+00  -6.274e-07  -1.929e-08   1.402e+02
  1.863e+02   5.395e-02  -5.431e+00  -2.195e-08  -1.543e-08   1.403e+02
 -8.268e+03   5.396e-02  -5.431e+00   5.830e-07  -1.157e-08   1.405e+02
 -1.273e+04   5.396e-02  -5.431e+00   9.019e-07  -9.537e-09   1.405e+02
Element    15
  7.901e+03   5.045e-02  -1.854e+00  -4.229e-07  -1.314e-08   1.377e+02
  5.238e+03   5.045e-02  -1.854e+00  -2.852e-07  -1.169e-08   1.377e+02
  1.935e+02   5.045e-02  -1.854e+00  -2.441e-08  -8.951e-09   1.378e+02
 -4.849e+03   5.046e-02  -1.854e+00   2.363e-07  -6.206e-09   1.379e+02
 -7.508e+03   5.046e-02  -1.854e+00   3.738e-07  -4.759e-09   1.379e+02
Element    16
  2.758e+03   4.860e-02  -9.858e-02  -1.344e-07  -9.063e-09   1.365e+02
  1.873e+03   4.860e-02  -9.858e-02  -9.599e-08  -7.642e-09   1.365e+02
  1.970e+02   4.860e-02  -9.858e-02  -2.310e-08  -4.947e-09   1.365e+02
 -1.479e+03   4.860e-02  -9.858e-02   4.977e-08  -2.252e-09   1.366e+02
 -2.363e+03   4.860e-02  -9.858e-02   8.821e-08  -8.300e-10   1.366e+02



TIME =   7.000e-01

Nodal Displacements

 Node          U1          U2          U3
    1   0.000e+00   0.000e+00   0.000e+00
    2   5.524e-03   1.596e-06   4.565e-02
    3  -1.839e-03  -7.871e-07   1.774e-01
    4  -3.103e-02   2.992e-07   3.849e-01
    5  -8.783e-02  -1.327e-07   6.577e-01
    6  -1.754e-01   3.622e-08   9.859e-01
    7  -2.948e-01  -2.648e-08   1.360e+00
    8  -4.457e-01  -1.515e-10   1.773e+00
    9  -6.265e-01  -7.911e-09   2.218e+00
   10  -8.347e-01  -2.659e-09   2.687e+00
   11  -1.068e+00  -2.474e-09   3.177e+00
   12  -1.322e+00  -4.518e-10   3.682e+00
   13  -1.594e+00   7.538e-10   4.200e+00
   14  -1.881e+00   2.153e-09   4.727e+00
   15  -2.179e+00   3.353e-09   5.261e+00
   16  -2.484e+00   4.497e-09   5.798e+00
   17  -2.793e+00   5.517e-09   6.338e+00
   18   0.000e+00   0.000e+00   0.000e+00
   19   5.524e-03  -1.596e-06   4.565e-02
   20  -1.839e-03   7.870e-07   1.774e-01
   21  -3.103e-02  -2.991e-07   3.849e-01
   22  -8.783e-02   1.329e-07   6.577e-01
   23  -1.754e-01  -3.558e-08   9.859e-01
   24  -2.948e-01   2.770e-08   1.360e+00
   25  -4.457e-01   2.163e-09   1.773e+00
   26  -6.265e-01   1.091e-08   2.218e+00
   27  -8.347e-01   6.850e-09   2.687e+00
   28  -1.068e+00   8.032e-09   3.177e+00
   29  -1.322e+00   7.535e-09   3.682e+00
   30  -1.594e+00   7.991e-09   4.200e+00
   31  -1.881e+00   8.362e-09   4.727e+00
   32  -2.179e+00   9.014e-09   5.261e+00
   33  -2.484e+00   9.777e-09   5.798e+00
   34  -2.793e+00   1.069e-08   6.338e+00
   35   0.000e+00   0.000e+00   0.000e+00
   36  -8.868e-03   1.596e-06   4.460e-02
   37  -2.907e-02  -7.859e-07   1.736e-01
   38  -6.946e-02   2.986e-07   3.772e-01
   39  -1.358e-01  -1.322e-07   6.454e-01
   40  -2.315e-01   3.628e-08   9.687e-01
   41  -3.577e-01  -2.623e-08   1.338e+00
   42  -5.141e-01   6.993e-11   1.746e+00
   43  -6.994e-01  -7.645e-09   2.186e+00
   44  -9.113e-01  -2.381e-09   2.651e+00
   45  -1.147e+00  -2.177e-09   3.137e+00
   46  -1.404e+00  -1.446e-10   3.640e+00
   47  -1.678e+00   1.069e-09   4.155e+00
   48  -1.966e+00   2.473e-09   4.680e+00
   49  -2.265e+00   3.674e-09   5.212e+00
   50  -2.570e+00   4.819e-09   5.749e+00
   51  -2.879e+00   5.839e-09   6.288e+00
   52   0.000e+00   0.000e+00   0.000e+00
   53  -8.868e-03  -1.596e-06   4.460e-02
   54  -2.907e-02   7.860e-07   1.736e-01
   55  -6.946e-02  -2.984e-07   3.772e-01
   56  -1.358e-01   1.328e-07   6.454e-01
   57  -2.315e-01  -3.529e-08   9.687e-01
   58  -3.577e-01   2.787e-08   1.338e+00
   59  -5.141e-01   2.416e-09   1.746e+00
   60  -6.994e-01   1.117e-08   2.186e+00
   61  -9.113e-01   7.134e-09   2.651e+00
   62  -1.147e+00   8.328e-09   3.137e+00
   63  -1.404e+00   7.844e-09   3.640e+00
   64  -1.678e+00   8.307e-09   4.155e+00
   65  -1.966e+00   8.682e-09   4.680e+00
   66  -2.265e+00   9.336e-09   5.212e+00
   67  -2.570e+00   1.010e-08   5.749e+00
   68  -2.879e+00   1.101e-08   6.288e+00

Element Stress

        S11         S22         S33         S12         S23         S13
Element     1
  1.155e+05  -1.596e+01  -2.903e+02  -1.819e-04   1.869e-06   3.031e+02
  7.521e+04  -1.596e+01  -2.903e+02  -1.185e-04   2.340e-06   2.951e+02
 -6.461e+02  -1.596e+01  -2.903e+02   1.024e-06   3.234e-06   2.799e+02
 -7.593e+04  -1.596e+01  -2.903e+02   1.196e-04   4.128e-06   2.647e+02
 -1.154e+05  -1.596e+01  -2.903e+02   1.819e-04   4.599e-06   2.566e+02
Element     2
  1.050e+05  -8.087e+00  -4.220e+02  -3.269e-04   4.107e-07   2.619e+02
  6.847e+04  -8.090e+00  -4.220e+02  -2.131e-04   9.450e-07   2.662e+02
 -4.928e+02  -8.095e+00  -4.220e+02   1.583e-06   1.958e-06   2.746e+02
 -6.899e+04  -8.100e+00  -4.220e+02   2.148e-04   2.971e-06   2.829e+02
 -1.049e+05  -8.103e+00  -4.220e+02   3.266e-04   3.505e-06   2.872e+02
Element     3
  9.492e+04   4.879e+00  -2.784e+02  -3.102e-04  -1.856e-06   2.661e+02
  6.192e+04   4.878e+00  -2.784e+02  -2.023e-04  -1.451e-06   2.657e+02
 -3.576e+02   4.877e+00  -2.784e+02   1.200e-06  -6.840e-07   2.649e+02
 -6.225e+04   4.875e+00  -2.784e+02   2.035e-04   8.334e-08   2.641e+02
 -9.474e+04   4.875e+00  -2.784e+02   3.097e-04   4.881e-07   2.637e+02
Element     4
  8.521e+04  -1.664e+00  -2.487e+02  -3.194e-04  -8.800e-07   2.492e+02
  5.562e+04  -1.663e+00  -2.487e+02  -2.085e-04  -4.725e-07   2.505e+02
 -2.409e+02  -1.662e+00  -2.487e+02   9.355e-07   2.998e-07   2.528e+02
 -5.579e+04  -1.660e+00  -2.487e+02   2.092e-04   1.072e-06   2.551e+02
 -8.497e+04  -1.660e+00  -2.487e+02   3.186e-04   1.479e-06   2.564e+02
Element     5
  7.599e+04   9.689e-01  -1.881e+02  -3.090e-04  -1.355e-06   2.380e+02
  4.963e+04   9.686e-01  -1.881e+02  -2.018e-04  -1.043e-06   2.384e+02
 -1.417e+02   9.680e-01  -1.881e+02   5.857e-07  -4.507e-07   2.392e+02
 -4.967e+04   9.674e-01  -1.881e+02   2.020e-04   1.413e-07   2.401e+02
 -7.569e+04   9.671e-01  -1.881e+02   3.078e-04   4.536e-07   2.405e+02
Element     6
  6.728e+04  -8.810e-02  -1.508e+02  -2.914e-04  -1.366e-06   2.235e+02
  4.397e+04  -8.797e-02  -1.508e+02  -1.905e-04  -1.060e-06   2.241e+02
 -5.854e+01  -8.773e-02  -1.508e+02   2.248e-07  -4.810e-07   2.252e+02
 -4.390e+04  -8.750e-02  -1.508e+02   1.901e-04   9.832e-08   2.263e+02
 -6.695e+04  -8.737e-02  -1.508e+02   2.899e-04   4.039e-07   2.269e+02
Element     7
  5.910e+04   2.824e-01  -1.148e+02  -2.658e-04  -1.365e-06   2.102e+02
  3.865e+04   2.824e-01  -1.148e+02  -1.739e-04  -1.127e-06   2.106e+02
  1.031e+01   2.823e-01  -1.148e+02  -1.373e-07  -6.766e-07   2.113e+02
 -3.848e+04   2.823e-01  -1.148e+02   1.729e-04  -2.261e-07   2.121e+02
 -5.873e+04   2.822e-01  -1.148e+02   2.639e-04   1.148e-08   2.125e+02
Element     8
  5.143e+04   1.057e-01  -8.729e+01  -2.347e-04  -1.406e-06   1.971e+02
  3.366e+04   1.057e-01  -8.729e+01  -1.537e-04  -1.176e-06   1.974e+02
  6.674e+01   1.058e-01  -8.729e+01  -4.810e-07  -7.379e-07   1.981e+02
 -3.341e+04   1.058e-01  -8.729e+01   1.522e-04  -3.002e-07   1.988e+02
 -5.103e+04   1.058e-01  -8.729e+01   2.326e-04  -6.933e-08   1.992e+02
Element     9
  4.423e+04   1.417e-01  -6.422e+01  -2.002e-04  -1.295e-06   1.852e+02
  2.897e+04   1.417e-01  -6.422e+01  -1.312e-04  -1.111e-06   1.854e+02
  1.125e+02   1.417e-01  -6.422e+01  -7.953e-07  -7.629e-07   1.860e+02
 -2.866e+04   1.417e-01  -6.422e+01   1.293e-04  -4.148e-07   1.865e+02
 -4.381e+04   1.417e-01  -6.422e+01   1.977e-04  -2.312e-07   1.868e+02
Element    10
  3.747e+04   1.001e-01  -4.601e+01  -1.640e-04  -1.242e-06   1.744e+02
  2.456e+04   1.001e-01  -4.601e+01  -1.077e-04  -1.065e-06   1.746e+02
  1.492e+02   1.001e-01  -4.601e+01  -1.073e-06  -7.314e-07   1.751e+02
 -2.421e+04   1.001e-01  -4.601e+01   1.052e-04  -3.973e-07   1.755e+02
 -3.703e+04   1.001e-01  -4.601e+01   1.612e-04  -2.211e-07   1.757e+02
Element    11
  3.108e+04   9.247e-02  -3.151e+01  -1.279e-04  -1.066e-06   1.651e+02
  2.040e+04   9.247e-02  -3.151e+01  -8.411e-05  -9.239e-07   1.653e+02
  1.782e+02   9.247e-02  -3.151e+01  -1.306e-06  -6.545e-07   1.656e+02
 -2.000e+04   9.247e-02  -3.151e+01   8.133e-05  -3.850e-07   1.659e+02
 -3.063e+04   9.247e-02  -3.151e+01   1.249e-04  -2.429e-07   1.661e+02
Element    12
  2.503e+04   7.612e-02  -2.031e+01  -9.344e-05  -9.163e-07   1.572e+02
  1.645e+04   7.612e-02  -2.031e+01  -6.166e-05  -7.856e-07   1.574e+02
  2.007e+02   7.613e-02  -2.031e+01  -1.493e-06  -5.377e-07   1.576e+02
 -1.602e+04   7.613e-02  -2.031e+01   5.858e-05  -2.898e-07   1.579e+02
 -2.457e+04   7.613e-02  -2.031e+01   9.023e-05  -1.591e-07   1.580e+02
Element    13
  1.924e+04   6.723e-02  -1.187e+01  -6.231e-05  -6.723e-07   1.509e+02
  1.267e+04   6.723e-02  -1.187e+01  -4.135e-05  -5.713e-07   1.510e+02
  2.176e+02   6.723e-02  -1.187e+01  -1.632e-06  -3.797e-07   1.512e+02
 -1.222e+04   6.724e-02  -1.187e+01   3.803e-05  -1.881e-07   1.514e+02
 -1.877e+04   6.724e-02  -1.187e+01   5.894e-05  -8.709e-08   1.515e+02
Element    14
  1.366e+04   5.935e-02  -5.860e+00  -3.611e-05  -4.298e-07   1.462e+02
  9.022e+03   5.935e-02  -5.860e+00  -2.423e-05  -3.485e-07   1.463e+02
  2.297e+02   5.935e-02  -5.860e+00  -1.728e-06  -1.942e-07   1.464e+02
 -8.555e+03   5.936e-02  -5.860e+00   2.076e-05  -4.003e-08   1.465e+02
 -1.319e+04   5.936e-02  -5.860e+00   3.261e-05   4.132e-08   1.466e+02
Element    15
  8.235e+03   5.470e-02  -1.995e+00  -1.660e-05  -8.019e-08   1.431e+02
  5.472e+03   5.470e-02  -1.995e+00  -1.148e-05  -3.068e-08   1.431e+02
  2.374e+02   5.470e-02  -1.995e+00  -1.781e-06   6.317e-08   1.432e+02
 -4.995e+03   5.470e-02  -1.995e+00   7.912e-06   1.570e-07   1.433e+02
 -7.753e+03   5.470e-02  -1.995e+00   1.302e-05   2.065e-07   1.433e+02
Element    16
  2.896e+03   5.226e-02  -1.059e-01  -5.876e-06   1.931e-07   1.415e+02
  1.979e+03   5.226e-02  -1.059e-01  -4.470e-06   2.116e-07   1.416e+02
  2.412e+02   5.226e-02  -1.059e-01  -1.806e-06   2.467e-07   1.416e+02
 -1.497e+03   5.226e-02  -1.059e-01   8.585e-07   2.817e-07   1.416e+02
 -2.413e+03   5.226e-02  -1.059e-01   2.264e-06   3.002e-07   1.416e+02



TIME =   8.000e-01

Nodal Displacements

 Node          U1          U2          U3
    1   0.000e+00   0.000e+00   0.000e+00
    2   5.836e-03   1.885e-06   4.959e-02
    3  -3.432e-03  -9.329e-07   1.923e-01
    4  -3.807e-02   3.522e-07   4.160e-01
    5  -1.045e-01  -1.584e-07   7.088e-01
    6  -2.059e-01   4.153e-08   1.059e+00
    7  -3.432e-01  -3.263e-08   1.457e+00
    8  -5.156e-01  -1.659e-09   1.894e+00
    9  -7.208e-01  -1.120e-08   2.361e+00
   10  -9.562e-01  -5.513e-09   2.854e+00
   11  -1.218e+00  -5.977e-09   3.365e+00
   12  -1.503e+00  -4.398e-09   3.892e+00
   13  -1.808e+00  -3.891e-09   4.431e+00
   14  -2.127e+00  -3.239e-09   4.977e+00
   15  -2.459e+00  -2.883e-09   5.530e+00
   16  -2.798e+00  -2.633e-09   6.086e+00
   17  -3.141e+00  -2.552e-09   6.644e+00
   18   0.000e+00   0.000e+00   0.000e+00
   19   5.836e-03  -1.885e-06   4.959e-02
   20  -3.432e-03   9.329e-07   1.923e-01
   21  -3.807e-02  -3.522e-07   4.160e-01
   22  -1.045e-01   1.584e-07   7.088e-01
   23  -2.059e-01  -4.152e-08   1.059e+00
   24  -3.432e-01   3.265e-08   1.457e+00
   25  -5.156e-01   1.693e-09   1.894e+00
   26  -7.208e-01   1.125e-08   2.361e+00
   27  -9.562e-01   5.583e-09   2.854e+00
   28  -1.218e+00   6.069e-09   3.365e+00
   29  -1.503e+00   4.514e-09   3.892e+00
   30  -1.808e+00   4.035e-09   4.431e+00
   31  -2.127e+00   3.411e-09   4.977e+00
   32  -2.459e+00   3.084e-09   5.530e+00
   33  -2.798e+00   2.865e-09   6.086e+00
   34  -3.141e+00   2.815e-09   6.644e+00
   35   0.000e+00   0.000e+00   0.000e+00
   36  -9.774e-03   1.886e-06   4.835e-02
   37  -3.284e-02  -9.314e-07   1.878e-01
   38  -7.938e-02   3.513e-07   4.071e-01
   39  -1.558e-01  -1.580e-07   6.946e-01
   40  -2.656e-01   4.139e-08   1.039e+00
   41  -4.098e-01  -3.257e-08   1.432e+00
   42  -5.877e-01  -1.677e-09   1.863e+00
   43  -7.974e-01  -1.119e-08   2.326e+00
   44  -1.036e+00  -5.512e-09   2.813e+00
   45  -1.301e+00  -5.972e-09   3.321e+00
   46  -1.588e+00  -4.394e-09   3.845e+00
   47  -1.894e+00  -3.887e-09   4.380e+00
   48  -2.215e+00  -3.234e-09   4.925e+00
   49  -2.547e+00  -2.878e-09   5.476e+00
   50  -2.887e+00  -2.628e-09   6.032e+00
   51  -3.230e+00  -2.547e-09   6.589e+00
   52   0.000e+00   0.000e+00   0.000e+00
   53  -9.774e-03  -1.886e-06   4.835e-02
   54  -3.284e-02   9.314e-07   1.878e-01
   55  -7.938e-02  -3.513e-07   4.071e-01
   56  -1.558e-01   1.580e-07   6.946e-01
   57  -2.656e-01  -4.137e-08   1.039e+00
   58  -4.098e-01   3.260e-08   1.432e+00
   59  -5.877e-01   1.718e-09   1.863e+00
   60  -7.974e-01   1.124e-08   2.326e+00
   61  -1.036e+00   5.591e-09   2.813e+00
   62  -1.301e+00   6.073e-09   3.321e+00
   63  -1.588e+00   4.520e-09   3.845e+00
   64  -1.894e+00   4.040e-09   4.380e+00
   65  -2.215e+00   3.416e-09   4.925e+00
   66  -2.547e+00   3.089e-09   5.476e+00
   67  -2.887e+00   2.870e-09   6.032e+00
   68  -3.230e+00   2.820e-09   6.589e+00

Element Stress

        S11         S22         S33         S12         S23         S13
Element     1
  1.253e+05  -1.885e+01  -3.409e+02  -2.900e-06   2.812e-08   3.471e+02
  8.158e+04  -1.885e+01  -3.409e+02  -1.889e-06   3.639e-08   3.377e+02
 -7.596e+02  -1.886e+01  -3.409e+02   1.771e-08   5.206e-08   3.198e+02
 -8.242e+04  -1.886e+01  -3.409e+02   1.909e-06   6.772e-08   3.020e+02
 -1.252e+05  -1.886e+01  -3.409e+02   2.900e-06   7.599e-08   2.925e+02
Element     2
  1.134e+05  -9.523e+00  -4.926e+02  -5.217e-06   3.725e-09   2.975e+02
  7.390e+04  -9.527e+00  -4.926e+02  -3.399e-06   1.288e-08   3.028e+02
 -5.700e+02  -9.534e+00  -4.926e+02   2.739e-08   3.024e-08   3.127e+02
 -7.449e+04  -9.541e+00  -4.926e+02   3.429e-06   4.760e-08   3.226e+02
 -1.133e+05  -9.545e+00  -4.926e+02   5.213e-06   5.676e-08   3.278e+02
Element     3
  1.019e+05   5.807e+00  -3.200e+02  -4.868e-06  -3.428e-08   3.012e+02
  6.646e+04   5.806e+00  -3.200e+02  -3.174e-06  -2.724e-08   3.007e+02
 -4.047e+02   5.804e+00  -3.200e+02   2.061e-08  -1.391e-08   2.999e+02
 -6.682e+04   5.802e+00  -3.200e+02   3.194e-06  -5.717e-10   2.990e+02
 -1.017e+05   5.801e+00  -3.200e+02   4.860e-06   6.463e-09   2.985e+02
Element     4
  9.095e+04  -1.938e+00  -2.834e+02  -4.918e-06  -1.811e-08   2.797e+02
  5.936e+04  -1.937e+00  -2.834e+02  -3.209e-06  -1.100e-08   2.812e+02
 -2.638e+02  -1.935e+00  -2.834e+02   1.625e-08   2.461e-09   2.839e+02
 -5.953e+04  -1.934e+00  -2.834e+02   3.223e-06   1.593e-08   2.867e+02
 -9.065e+04  -1.933e+00  -2.834e+02   4.907e-06   2.303e-08   2.882e+02
Element     5
  8.063e+04   1.169e+00  -2.115e+02  -4.697e-06  -2.469e-08   2.648e+02
  5.266e+04   1.168e+00  -2.115e+02  -3.067e-06  -1.933e-08   2.653e+02
 -1.457e+02   1.168e+00  -2.115e+02   1.114e-08  -9.173e-09   2.663e+02
 -5.268e+04   1.167e+00  -2.115e+02   3.073e-06   9.869e-10   2.673e+02
 -8.028e+04   1.166e+00  -2.115e+02   4.682e-06   6.347e-09   2.678e+02
Element     6
  7.099e+04  -8.892e-02  -1.678e+02  -4.367e-06  -2.461e-08   2.462e+02
  4.640e+04  -8.875e-02  -1.678e+02  -2.854e-06  -1.929e-08   2.469e+02
 -4.825e+01  -8.843e-02  -1.678e+02   6.222e-09  -9.210e-09   2.482e+02
 -4.628e+04  -8.811e-02  -1.678e+02   2.853e-06   8.713e-10   2.495e+02
 -7.058e+04  -8.794e-02  -1.678e+02   4.349e-06   6.189e-09   2.502e+02
Element     7
  6.202e+04   3.431e-01  -1.262e+02  -3.936e-06  -2.441e-08   2.292e+02
  4.057e+04   3.431e-01  -1.262e+02  -2.573e-06  -2.015e-08   2.297e+02
  3.120e+01   3.430e-01  -1.262e+02   2.108e-09  -1.208e-08   2.305e+02
 -4.034e+04   3.429e-01  -1.262e+02   2.567e-06  -4.012e-09   2.314e+02
 -6.157e+04   3.428e-01  -1.262e+02   3.916e-06   2.457e-10   2.319e+02
Element     8
  5.369e+04   1.290e-01  -9.499e+01  -3.438e-06  -2.504e-08   2.127e+02
  3.515e+04   1.290e-01  -9.499e+01  -2.249e-06  -2.102e-08   2.131e+02
  9.528e+01   1.291e-01  -9.499e+01  -2.159e-09  -1.338e-08   2.139e+02
 -3.484e+04   1.291e-01  -9.499e+01   2.237e-06  -5.749e-09   2.147e+02
 -5.321e+04   1.291e-01  -9.499e+01   3.415e-06  -1.722e-09   2.151e+02
Element     9
  4.596e+04   1.677e-01  -6.919e+01  -2.904e-06  -2.405e-08   1.978e+02
  3.011e+04   1.677e-01  -6.919e+01  -1.902e-06  -2.080e-08   1.981e+02
  1.465e+02   1.677e-01  -6.919e+01  -6.201e-09  -1.464e-08   1.987e+02
 -2.973e+04   1.677e-01  -6.919e+01   1.884e-06  -8.484e-09   1.993e+02
 -4.546e+04   1.677e-01  -6.919e+01   2.878e-06  -5.235e-09   1.996e+02
Element    10
  3.877e+04   1.157e-01  -4.915e+01  -2.360e-06  -2.489e-08   1.845e+02
  2.543e+04   1.157e-01  -4.915e+01  -1.547e-06  -2.158e-08   1.847e+02
  1.869e+02   1.157e-01  -4.915e+01  -9.975e-09  -1.529e-08   1.852e+02
 -2.499e+04   1.157e-01  -4.915e+01   1.523e-06  -9.005e-09   1.856e+02
 -3.824e+04   1.157e-01  -4.915e+01   2.331e-06  -5.689e-09   1.859e+02
Element    11
  3.205e+04   1.048e-01  -3.339e+01  -1.823e-06  -2.060e-08   1.730e+02
  2.104e+04   1.048e-01  -3.339e+01  -1.197e-06  -1.803e-08   1.732e+02
  2.184e+02   1.048e-01  -3.339e+01  -1.133e-08  -1.315e-08   1.735e+02
 -2.056e+04   1.048e-01  -3.339e+01   1.172e-06  -8.269e-09   1.739e+02
 -3.151e+04   1.048e-01  -3.339e+01   1.795e-06  -5.695e-09   1.741e+02
Element    12
  2.573e+04   8.419e-02  -2.138e+01  -1.325e-06  -1.964e-08   1.634e+02
  1.692e+04   8.419e-02  -2.138e+01  -8.720e-07  -1.727e-08   1.635e+02
  2.425e+02   8.420e-02  -2.138e+01  -1.455e-08  -1.278e-08   1.638e+02
 -1.640e+04   8.420e-02  -2.138e+01   8.415e-07  -8.291e-09   1.640e+02
 -2.518e+04   8.420e-02  -2.138e+01   1.293e-06  -5.922e-09   1.642e+02
Element    13
  1.973e+04   7.288e-02  -1.243e+01  -8.777e-07  -1.761e-08   1.557e+02
  1.300e+04   7.288e-02  -1.243e+01  -5.801e-07  -1.571e-08   1.558e+02
  2.605e+02   7.288e-02  -1.243e+01  -1.654e-08  -1.212e-08   1.560e+02
 -1.247e+04   7.288e-02  -1.243e+01   5.463e-07  -8.523e-09   1.562e+02
 -1.917e+04   7.289e-02  -1.243e+01   8.429e-07  -6.626e-09   1.563e+02
Element    14
  1.400e+04   6.308e-02  -6.113e+00  -5.021e-07  -1.255e-08   1.499e+02
  9.255e+03   6.308e-02  -6.113e+00  -3.340e-07  -1.092e-08   1.500e+02
  2.732e+02   6.308e-02  -6.113e+00  -1.548e-08  -7.837e-09   1.502e+02
 -8.700e+03   6.309e-02  -6.113e+00   3.028e-07  -4.754e-09   1.503e+02
 -1.343e+04   6.309e-02  -6.113e+00   4.705e-07  -3.127e-09   1.504e+02
Element    15
  8.440e+03   5.732e-02  -2.075e+00  -2.192e-07  -5.014e-09   1.462e+02
  5.621e+03   5.732e-02  -2.075e+00  -1.472e-07  -4.350e-09   1.462e+02
  2.813e+02   5.733e-02  -2.075e+00  -1.068e-08  -3.092e-09   1.463e+02
 -5.056e+03   5.733e-02  -2.075e+00   1.257e-07  -1.834e-09   1.464e+02
 -7.870e+03   5.733e-02  -2.075e+00   1.977e-07  -1.170e-09   1.464e+02
Element    16
  2.992e+03   5.432e-02  -1.099e-01  -7.439e-08  -3.922e-09   1.443e+02
  2.057e+03   5.432e-02  -1.099e-01  -5.414e-08  -3.352e-09   1.443e+02
  2.852e+02   5.432e-02  -1.099e-01  -1.574e-08  -2.270e-09   1.443e+02
 -1.486e+03   5.432e-02  -1.099e-01   2.264e-08  -1.188e-09   1.444e+02
 -2.421e+03   5.432e-02  -1.099e-01   4.289e-08  -6.175e-10   1.444e+02



TIME =   9.000e-01

Nodal Displacements

 Node          U1          U2          U3
    1   0.000e+00   0.000e+00   0.000e+00
    2   6.099e-03   2.172e-06   5.319e-02
    3  -5.077e-03  -1.079e-06   2.058e-01
    4  -4.503e-02   4.045e-07   4.441e-01
    5  -1.206e-01  -1.841e-07   7.544e-01
    6  -2.352e-01   4.715e-08   1.124e+00
    7  -3.891e-01  -3.782e-08   1.542e+00
    8  -5.812e-01  -1.520e-09   1.998e+00
    9  -8.088e-01  -1.197e-08   2.485e+00
   10  -1.069e+00  -4.876e-09   2.996e+00
   11  -1.357e+00  -4.874e-09   3.525e+00
   12  -1.669e+00  -2.510e-09   4.069e+00
   13  -2.001e+00  -1.372e-09   4.623e+00
   14  -2.350e+00  -5.139e-11   5.185e+00
   15  -2.710e+00   9.392e-10   5.752e+00
   16  -3.079e+00   1.817e-09   6.322e+00
   17  -3.451e+00   2.504e-09   6.894e+00
   18   0.000e+00   0.000e+00   0.000e+00
   19   6.099e-03  -2.172e-06   5.319e-02
   20  -5.077e-03   1.079e-06   2.058e-01
   21  -4.503e-02  -4.044e-07   4.441e-01
   22  -1.206e-01   1.843e-07   7.544e-01
   23  -2.352e-01  -4.670e-08   1.124e+00
   24  -3.891e-01   3.866e-08   1.542e+00
   25  -5.812e-01   2.886e-09   1.998e+00
   26  -8.088e-01   1.399e-08   2.485e+00
   27  -1.069e+00   7.670e-09   2.996e+00
   28  -1.357e+00   8.553e-09   3.525e+00
   29  -1.669e+00   7.169e-09   4.069e+00
   30  -2.001e+00   7.092e-09   4.623e+00
   31  -2.350e+00   6.897e-09   5.185e+00
   32  -2.710e+00   7.081e-09   5.752e+00
   33  -3.079e+00   7.408e-09   6.322e+00
   34  -3.451e+00   7.942e-09   6.894e+00
   35   0.000e+00   0.000e+00   0.000e+00
   36  -1.062e-02   2.173e-06   5.177e-02
   37  -3.646e-02  -1.077e-06   2.007e-01
   38  -8.890e-02   4.033e-07   4.340e-01
   39  -1.749e-01  -1.836e-07   7.384e-01
   40  -2.980e-01   4.707e-08   1.102e+00
   41  -4.589e-01  -3.763e-08   1.514e+00
   42  -6.565e-01  -1.407e-09   1.964e+00
   43  -8.884e-01  -1.181e-08   2.446e+00
   44  -1.152e+00  -4.718e-09   2.952e+00
   45  -1.442e+00  -4.703e-09   3.477e+00
   46  -1.756e+00  -2.334e-09   4.017e+00
   47  -2.090e+00  -1.191e-09   4.568e+00
   48  -2.440e+00   1.311e-10   5.128e+00
   49  -2.801e+00   1.123e-09   5.693e+00
   50  -3.170e+00   2.001e-09   6.263e+00
   51  -3.543e+00   2.688e-09   6.834e+00
   52   0.000e+00   0.000e+00   0.000e+00
   53  -1.062e-02  -2.173e-06   5.177e-02
   54  -3.646e-02   1.077e-06   2.007e-01
   55  -8.890e-02  -4.032e-07   4.340e-01
   56  -1.749e-01   1.839e-07   7.384e-01
   57  -2.980e-01  -4.641e-08   1.102e+00
   58  -4.589e-01   3.872e-08   1.514e+00
   59  -6.565e-01   3.052e-09   1.964e+00
   60  -8.884e-01   1.414e-08   2.446e+00
   61  -1.152e+00   7.838e-09   2.952e+00
   62  -1.442e+00   8.724e-09   3.477e+00
   63  -1.756e+00   7.347e-09   4.017e+00
   64  -2.090e+00   7.273e-09   4.568e+00
   65  -2.440e+00   7.081e-09   5.128e+00
   66  -2.801e+00   7.265e-09   5.693e+00
   67  -3.170e+00   7.593e-09   6.263e+00
   68  -3.543e+00   8.126e-09   6.834e+00

Element Stress

        S11         S22         S33         S12         S23         S13
Element     1
  1.343e+05  -2.172e+01  -3.906e+02  -1.083e-04   1.000e-06   3.910e+02
  8.740e+04  -2.172e+01  -3.906e+02  -7.049e-05   1.335e-06   3.802e+02
 -8.710e+02  -2.173e+01  -3.906e+02   7.064e-07   1.970e-06   3.598e+02
 -8.837e+04  -2.173e+01  -3.906e+02   7.130e-05   2.604e-06   3.393e+02
 -1.342e+05  -2.173e+01  -3.906e+02   1.083e-04   2.939e-06   3.285e+02
Element     2
  1.209e+05  -1.094e+01  -5.609e+02  -1.968e-04   1.360e-07   3.329e+02
  7.877e+04  -1.094e+01  -5.609e+02  -1.282e-04   5.093e-07   3.390e+02
 -6.433e+02  -1.095e+01  -5.609e+02   1.084e-06   1.217e-06   3.506e+02
 -7.943e+04  -1.096e+01  -5.609e+02   1.293e-04   1.924e-06   3.621e+02
 -1.207e+05  -1.096e+01  -5.609e+02   1.966e-04   2.298e-06   3.682e+02
Element     3
  1.081e+05   6.741e+00  -3.589e+02  -1.873e-04  -1.242e-06   3.356e+02
  7.046e+04   6.740e+00  -3.589e+02  -1.221e-04  -9.588e-07   3.351e+02
 -4.466e+02   6.737e+00  -3.589e+02   7.920e-07  -4.224e-07   3.342e+02
 -7.085e+04   6.735e+00  -3.589e+02   1.228e-04   1.140e-07   3.332e+02
 -1.078e+05   6.733e+00  -3.589e+02   1.869e-04   3.970e-07   3.327e+02
Element     4
  9.589e+04  -2.202e+00  -3.152e+02  -1.914e-04  -6.791e-07   3.091e+02
  6.258e+04  -2.201e+00  -3.152e+02  -1.249e-04  -3.928e-07   3.108e+02
 -2.811e+02  -2.199e+00  -3.152e+02   5.700e-07   1.498e-07   3.141e+02
 -6.275e+04  -2.197e+00  -3.152e+02   1.252e-04   6.925e-07   3.173e+02
 -9.554e+04  -2.195e+00  -3.152e+02   1.907e-04   9.787e-07   3.190e+02
Element     5
  8.453e+04   1.373e+00  -2.320e+02  -1.838e-04  -9.222e-07   2.903e+02
  5.521e+04   1.372e+00  -2.320e+02  -1.201e-04  -7.033e-07   2.909e+02
 -1.443e+02   1.371e+00  -2.320e+02   2.919e-07  -2.883e-07   2.920e+02
 -5.519e+04   1.370e+00  -2.320e+02   1.200e-04   1.267e-07   2.931e+02
 -8.410e+04   1.370e+00  -2.320e+02   1.829e-04   3.456e-07   2.937e+02
Element     6
  7.400e+04  -8.687e-02  -1.822e+02  -1.716e-04  -9.233e-07   2.674e+02
  4.837e+04  -8.666e-02  -1.822e+02  -1.122e-04  -7.063e-07   2.682e+02
 -3.314e+01  -8.625e-02  -1.822e+02   7.135e-09  -2.951e-07   2.696e+02
 -4.820e+04  -8.583e-02  -1.822e+02   1.117e-04   1.160e-07   2.711e+02
 -7.352e+04  -8.562e-02  -1.822e+02   1.704e-04   3.330e-07   2.719e+02
Element     7
  6.430e+04   4.045e-01  -1.354e+02  -1.550e-04  -8.675e-07   2.465e+02
  4.206e+04   4.044e-01  -1.354e+02  -1.015e-04  -6.982e-07   2.470e+02
  5.614e+01   4.043e-01  -1.354e+02  -2.734e-07  -3.774e-07   2.480e+02
 -4.178e+04   4.041e-01  -1.354e+02   1.005e-04  -5.649e-08   2.489e+02
 -6.377e+04   4.041e-01  -1.354e+02   1.535e-04   1.128e-07   2.495e+02
Element     8
  5.538e+04   1.518e-01  -1.009e+02  -1.357e-04  -8.561e-07   2.265e+02
  3.626e+04   1.519e-01  -1.009e+02  -8.894e-05  -6.904e-07   2.270e+02
  1.271e+02   1.519e-01  -1.009e+02  -5.359e-07  -3.764e-07   2.278e+02
 -3.588e+04   1.520e-01  -1.009e+02   8.755e-05  -6.236e-08   2.286e+02
 -5.482e+04   1.520e-01  -1.009e+02   1.339e-04   1.033e-07   2.291e+02
Element     9
  4.719e+04   1.925e-01  -7.279e+01  -1.149e-04  -7.332e-07   2.086e+02
  3.093e+04   1.925e-01  -7.279e+01  -7.541e-05  -6.005e-07   2.089e+02
  1.829e+02   1.925e-01  -7.279e+01  -7.761e-07  -3.490e-07   2.095e+02
 -3.047e+04   1.925e-01  -7.279e+01   7.363e-05  -9.756e-08   2.101e+02
 -4.660e+04   1.925e-01  -7.279e+01   1.128e-04   3.511e-08   2.105e+02
Element    10
  3.964e+04   1.299e-01  -5.126e+01  -9.362e-05  -6.580e-07   1.926e+02
  2.601e+04   1.299e-01  -5.126e+01  -6.159e-05  -5.303e-07   1.929e+02
  2.263e+02   1.299e-01  -5.126e+01  -9.854e-07  -2.883e-07   1.934e+02
 -2.549e+04   1.299e-01  -5.126e+01   5.947e-05  -4.622e-08   1.939e+02
 -3.903e+04   1.299e-01  -5.126e+01   9.129e-05   8.146e-08   1.942e+02
Element    11
  3.265e+04   1.155e-01  -3.456e+01  -7.286e-05  -5.017e-07   1.790e+02
  2.145e+04   1.155e-01  -3.456e+01  -4.808e-05  -3.991e-07   1.792e+02
  2.597e+02   1.155e-01  -3.456e+01  -1.164e-06  -2.046e-07   1.796e+02
 -2.089e+04   1.155e-01  -3.456e+01   4.565e-05  -1.007e-08   1.800e+02
 -3.202e+04   1.155e-01  -3.456e+01   7.031e-05   9.254e-08   1.802e+02
Element    12
  2.613e+04   9.071e-02  -2.199e+01  -5.341e-05  -3.780e-07   1.677e+02
  1.720e+04   9.072e-02  -2.199e+01  -3.540e-05  -2.831e-07   1.678e+02
  2.850e+02   9.072e-02  -2.199e+01  -1.309e-06  -1.032e-07   1.681e+02
 -1.660e+04   9.073e-02  -2.199e+01   3.273e-05   7.669e-08   1.684e+02
 -2.550e+04   9.073e-02  -2.199e+01   5.066e-05   1.716e-07   1.686e+02
Element    13
  2.000e+04   7.706e-02  -1.272e+01  -3.599e-05  -1.969e-07   1.587e+02
  1.319e+04   7.706e-02  -1.272e+01  -2.404e-05  -1.241e-07   1.588e+02
  3.036e+02   7.707e-02  -1.272e+01  -1.417e-06   1.391e-08   1.590e+02
 -1.257e+04   7.707e-02  -1.272e+01   2.118e-05   1.519e-07   1.592e+02
 -1.936e+04   7.707e-02  -1.272e+01   3.309e-05   2.247e-07   1.593e+02
Element    14
  1.417e+04   6.545e-02  -6.227e+00  -2.136e-05  -2.999e-08   1.520e+02
  9.384e+03   6.545e-02  -6.227e+00  -1.450e-05   2.722e-08   1.520e+02
  3.167e+02   6.546e-02  -6.227e+00  -1.490e-06   1.357e-07   1.522e+02
 -8.742e+03   6.546e-02  -6.227e+00   1.150e-05   2.441e-07   1.523e+02
 -1.352e+04   6.546e-02  -6.227e+00   1.835e-05   3.013e-07   1.524e+02
Element    15
  8.550e+03   5.867e-02  -2.108e+00  -1.035e-05   1.898e-07   1.475e+02
  5.709e+03   5.867e-02  -2.108e+00  -7.304e-06   2.248e-07   1.476e+02
  3.249e+02   5.867e-02  -2.108e+00  -1.537e-06   2.910e-07   1.477e+02
 -5.056e+03   5.867e-02  -2.108e+00   4.227e-06   3.573e-07   1.477e+02
 -7.893e+03   5.867e-02  -2.108e+00   7.266e-06   3.923e-07   1.478e+02
Element    16
  3.056e+03   5.515e-02  -1.115e-01  -4.108e-06   3.542e-07   1.454e+02
  2.114e+03   5.515e-02  -1.115e-01  -3.225e-06   3.675e-07   1.454e+02
  3.289e+02   5.515e-02  -1.115e-01  -1.552e-06   3.928e-07   1.454e+02
 -1.456e+03   5.515e-02  -1.115e-01   1.203e-07   4.180e-07   1.454e+02
 -2.397e+03   5.515e-02  -1.115e-01   1.003e-06   4.314e-07   1.455e+02



TIME =   1.000e+00

Nodal Displacements

 Node          U1          U2          U3
    1   0.000e+00   0.000e+00   0.000e+00
    2   6.322e-03   2.456e-06   5.652e-02
    3  -6.752e-03  -1.224e-06   2.182e-01
    4  -5.187e-02   4.558e-07   4.697e-01
    5  -1.363e-01  -2.101e-07   7.957e-01
    6  -2.632e-01   5.215e-08   1.182e+00
    7  -4.327e-01  -4.383e-08   1.617e+00
    8  -6.430e-01  -2.659e-09   2.090e+00
    9  -8.909e-01  -1.460e-08   2.593e+00
   10  -1.173e+00  -6.818e-09   3.119e+00
   11  -1.484e+00  -7.188e-09   3.662e+00
   12  -1.820e+00  -4.976e-09   4.219e+00
   13  -2.177e+00  -4.223e-09   4.785e+00
   14  -2.551e+00  -3.315e-09   5.359e+00
   15  -2.936e+00  -2.814e-09   5.937e+00
   16  -3.330e+00  -2.461e-09   6.518e+00
   17  -3.728e+00  -2.332e-09   7.101e+00
   18   0.000e+00   0.000e+00   0.000e+00
   19   6.322e-03  -2.456e-06   5.652e-02
   20  -6.752e-03   1.224e-06   2.182e-01
   21  -5.187e-02  -4.558e-07   4.697e-01
   22  -1.363e-01   2.102e-07   7.957e-01
   23  -2.632e-01  -5.211e-08   1.182e+00
   24  -4.327e-01   4.390e-08   1.617e+00
   25  -6.430e-01   2.768e-09   2.090e+00
   26  -8.909e-01   1.476e-08   2.593e+00
   27  -1.173e+00   7.032e-09   3.119e+00
   28  -1.484e+00   7.466e-09   3.662e+00
   29  -1.820e+00   5.324e-09   4.219e+00
   30  -2.177e+00   4.647e-09   4.785e+00
   31  -2.551e+00   3.818e-09   5.359e+00
   32  -2.936e+00   3.399e-09   5.937e+00
   33  -3.330e+00   3.130e-09   6.518e+00
   34  -3.728e+00   3.086e-09   7.101e+00
   35   0.000e+00   0.000e+00   0.000e+00
   36  -1.142e-02   2.457e-06   5.493e-02
   37  -3.993e-02  -1.221e-06   2.126e-01
   38  -9.805e-02   4.544e-07   4.584e-01
   39  -1.932e-01  -2.095e-07   7.779e-01
   40  -3.288e-01   5.192e-08   1.158e+00
   41  -5.052e-01  -4.374e-08   1.586e+00
   42  -7.209e-01  -2.683e-09   2.053e+00
   43  -9.730e-01  -1.458e-08   2.550e+00
   44  -1.258e+00  -6.813e-09   3.071e+00
   45  -1.572e+00  -7.177e-09   3.610e+00
   46  -1.910e+00  -4.966e-09   4.163e+00
   47  -2.268e+00  -4.213e-09   4.727e+00
   48  -2.643e+00  -3.304e-09   5.298e+00
   49  -3.029e+00  -2.803e-09   5.875e+00
   50  -3.423e+00  -2.450e-09   6.455e+00
   51  -3.821e+00  -2.321e-09   7.037e+00
   52   0.000e+00   0.000e+00   0.000e+00
   53  -1.142e-02  -2.457e-06   5.493e-02
   54  -3.993e-02   1.221e-06   2.126e-01
   55  -9.805e-02  -4.544e-07   4.584e-01
   56  -1.932e-01   2.096e-07   7.779e-01
   57  -3.288e-01  -5.187e-08   1.158e+00
   58  -5.052e-01   4.383e-08   1.586e+00
   59  -7.209e-01   2.810e-09   2.053e+00
   60  -9.730e-01   1.476e-08   2.550e+00
   61  -1.258e+00   7.048e-09   3.071e+00
   62  -1.572e+00   7.477e-09   3.610e+00
   63  -1.910e+00   5.337e-09   4.163e+00
   64  -2.268e+00   4.659e-09   4.727e+00
   65  -2.643e+00   3.830e-09   5.298e+00
   66  -3.029e+00   3.411e-09   5.875e+00
   67  -3.423e+00   3.141e-09   6.455e+00
   68  -3.821e+00   3.098e-09   7.037e+00

Element Stress

        S11         S22         S33         S12         S23         S13
Element     1
  1.426e+05  -2.456e+01  -4.392e+02  -8.601e-06   7.657e-08   4.349e+02
  9.276e+04  -2.456e+01  -4.392e+02  -5.597e-06   1.036e-07   4.227e+02
 -9.803e+02  -2.457e+01  -4.392e+02   5.954e-08   1.548e-07   3.997e+02
 -9.385e+04  -2.457e+01  -4.392e+02   5.664e-06   2.060e-07   3.767e+02
 -1.425e+05  -2.457e+01  -4.392e+02   8.600e-06   2.330e-07   3.646e+02
Element     2
  1.277e+05  -1.232e+01  -6.270e+02  -1.530e-05  -5.886e-09   3.681e+02
  8.320e+04  -1.233e+01  -6.270e+02  -9.966e-06   2.233e-08   3.750e+02
 -7.126e+02  -1.234e+01  -6.270e+02   8.952e-08   7.581e-08   3.882e+02
 -8.393e+04  -1.235e+01  -6.270e+02   1.006e-05   1.293e-07   4.014e+02
 -1.275e+05  -1.236e+01  -6.270e+02   1.529e-05   1.575e-07   4.083e+02
Element     3
  1.135e+05   7.679e+00  -3.951e+02  -1.340e-05  -1.283e-07   3.695e+02
  7.402e+04   7.678e+00  -3.951e+02  -8.737e-06  -1.070e-07   3.690e+02
 -4.837e+02   7.674e+00  -3.951e+02   6.057e-08  -6.670e-08   3.679e+02
 -7.443e+04   7.671e+00  -3.951e+02   8.794e-06  -2.636e-08   3.669e+02
 -1.132e+05   7.670e+00  -3.951e+02   1.337e-05  -5.086e-09   3.664e+02
Element     4
  1.002e+05  -2.457e+00  -3.443e+02  -1.275e-05  -7.133e-08   3.377e+02
  6.538e+04  -2.455e+00  -3.443e+02  -8.316e-06  -4.931e-08   3.396e+02
 -2.933e+02  -2.453e+00  -3.443e+02   4.168e-08  -7.554e-09   3.433e+02
 -6.553e+04  -2.450e+00  -3.443e+02   8.345e-06   3.420e-08   3.470e+02
 -9.978e+04  -2.448e+00  -3.443e+02   1.270e-05   5.622e-08   3.489e+02
Element     5
  8.781e+04   1.580e+00  -2.499e+02  -1.168e-05  -8.289e-08   3.146e+02
  5.735e+04   1.580e+00  -2.499e+02  -7.624e-06  -6.642e-08   3.153e+02
 -1.382e+02   1.578e+00  -2.499e+02   2.278e-08  -3.520e-08   3.165e+02
 -5.730e+04   1.577e+00  -2.499e+02   7.626e-06  -3.971e-09   3.178e+02
 -8.732e+04   1.576e+00  -2.499e+02   1.162e-05   1.250e-08   3.185e+02
Element     6
  7.645e+04  -8.269e-02  -1.943e+02  -1.040e-05  -8.168e-08   2.871e+02
  4.998e+04  -8.242e-02  -1.943e+02  -6.801e-06  -6.463e-08   2.880e+02
 -1.389e+01  -8.190e-02  -1.943e+02   5.687e-09  -3.233e-08   2.897e+02
 -4.976e+04  -8.139e-02  -1.943e+02   6.778e-06  -1.904e-11   2.913e+02
 -7.590e+04  -8.111e-02  -1.943e+02   1.034e-05   1.702e-08   2.922e+02
Element     7
  6.607e+04   4.658e-01  -1.428e+02  -9.078e-06  -7.143e-08   2.623e+02
  4.323e+04   4.657e-01  -1.428e+02  -5.939e-06  -5.838e-08   2.629e+02
  8.448e+01   4.655e-01  -1.428e+02  -8.742e-09  -3.365e-08   2.639e+02
 -4.288e+04   4.654e-01  -1.428e+02   5.897e-06  -8.908e-09   2.650e+02
 -6.547e+04   4.653e-01  -1.428e+02   9.002e-06   4.142e-09   2.655e+02
Element     8
  5.663e+04   1.739e-01  -1.054e+02  -7.712e-06  -7.153e-08   2.388e+02
  3.709e+04   1.740e-01  -1.054e+02  -5.051e-06  -5.831e-08   2.392e+02
  1.615e+02   1.740e-01  -1.054e+02  -2.113e-08  -3.324e-08   2.401e+02
 -3.663e+04   1.741e-01  -1.054e+02   4.990e-06  -8.166e-09   2.411e+02
 -5.599e+04   1.742e-01  -1.054e+02   7.627e-06   5.060e-09   2.415e+02
Element     9
  4.803e+04   2.160e-01  -7.524e+01  -6.373e-06  -6.020e-08   2.178e+02
  3.149e+04   2.160e-01  -7.524e+01  -4.179e-06  -5.003e-08   2.181e+02
  2.212e+02   2.160e-01  -7.524e+01  -3.069e-08  -3.074e-08   2.188e+02
 -3.095e+04   2.160e-01  -7.524e+01   4.105e-06  -1.146e-08   2.195e+02
 -4.736e+04   2.160e-01  -7.524e+01   6.282e-06  -1.283e-09   2.198e+02
Element    10
  4.018e+04   1.425e-01  -5.255e+01  -5.090e-06  -5.711e-08   1.993e+02
  2.638e+04   1.425e-01  -5.255e+01  -3.343e-06  -4.718e-08   1.996e+02
  2.670e+02   1.425e-01  -5.255e+01  -3.891e-08  -2.834e-08   2.001e+02
 -2.577e+04   1.426e-01  -5.255e+01   3.257e-06  -9.508e-09   2.006e+02
 -3.949e+04   1.426e-01  -5.255e+01   4.992e-06   4.279e-10   2.009e+02
Element    11
  3.298e+04   1.248e-01  -3.516e+01  -3.894e-06  -4.760e-08   1.836e+02
  2.168e+04   1.248e-01  -3.516e+01  -2.564e-06  -3.970e-08   1.838e+02
  3.019e+02   1.248e-01  -3.516e+01  -4.595e-08  -2.474e-08   1.842e+02
 -2.103e+04   1.248e-01  -3.516e+01   2.467e-06  -9.776e-09   1.846e+02
 -3.227e+04   1.248e-01  -3.516e+01   3.790e-06  -1.882e-09   1.848e+02
Element    12
  2.632e+04   9.585e-02  -2.223e+01  -2.812e-06  -4.291e-08   1.706e+02
  1.734e+04   9.586e-02  -2.223e+01  -1.858e-06  -3.528e-08   1.708e+02
  3.279e+02   9.586e-02  -2.223e+01  -5.143e-08  -2.083e-08   1.711e+02
 -1.665e+04   9.587e-02  -2.223e+01   1.752e-06  -6.375e-09   1.714e+02
 -2.560e+04   9.587e-02  -2.223e+01   2.702e-06   1.250e-09   1.715e+02
Element    13
  2.010e+04   8.002e-02  -1.279e+01  -1.862e-06  -3.098e-08   1.603e+02
  1.328e+04   8.002e-02  -1.279e+01  -1.236e-06  -2.572e-08   1.605e+02
  3.468e+02   8.002e-02  -1.279e+01  -5.240e-08  -1.574e-08   1.607e+02
 -1.257e+04   8.002e-02  -1.279e+01   1.130e-06  -5.761e-09   1.609e+02
 -1.937e+04   8.003e-02  -1.279e+01   1.753e-06  -4.960e-10   1.610e+02
Element    14
  1.423e+04   6.673e-02  -6.236e+00  -1.077e-06  -2.115e-08   1.527e+02
  9.436e+03   6.673e-02  -6.236e+00  -7.235e-07  -1.730e-08   1.528e+02
  3.600e+02   6.673e-02  -6.236e+00  -5.336e-08  -9.990e-09   1.529e+02
 -8.708e+03   6.674e-02  -6.236e+00   6.161e-07  -2.683e-09   1.531e+02
 -1.349e+04   6.674e-02  -6.236e+00   9.691e-07   1.172e-09   1.531e+02
Element    15
  8.590e+03   5.902e-02  -2.105e+00  -5.035e-07  -1.033e-08   1.477e+02
  5.750e+03   5.902e-02  -2.105e+00  -3.495e-07  -7.501e-09   1.477e+02
  3.683e+02   5.902e-02  -2.105e+00  -5.780e-08  -2.140e-09   1.478e+02
 -5.011e+03   5.902e-02  -2.105e+00   2.338e-07   3.220e-09   1.479e+02
 -7.847e+03   5.902e-02  -2.105e+00   3.875e-07   6.048e-09   1.479e+02
Element    16
  3.096e+03   5.504e-02  -1.112e-01  -1.851e-07  -6.791e-10   1.452e+02
  2.155e+03   5.504e-02  -1.112e-01  -1.410e-07   3.954e-10   1.452e+02
  3.723e+02   5.505e-02  -1.112e-01  -5.728e-08   2.432e-09   1.453e+02
 -1.411e+03   5.505e-02  -1.112e-01   2.638e-08   4.469e-09   1.453e+02
 -2.351e+03   5.505e-02  -1.112e-01   7.051e-08   5.544e-09   1.453e+02

		 *** Successful end of program ***
