

TIME =   1.000e+00

Nodal Displacements

 Node          U1          U2          U3
    1   0.000e+00   0.000e+00   0.000e+00
    2   5.000e-01   4.900e-17  -2.824e-17
    3   5.000e-01   3.859e-17   1.659e-17
    4   0.000e+00   0.000e+00   0.000e+00
    5   0.000e+00   0.000e+00   0.000e+00
    6   5.000e-01  -6.149e-17  -8.243e-17
    7   5.000e-01  -1.910e-17   9.215e-17
    8   0.000e+00   0.000e+00   0.000e+00

Element Stress

        S11         S22         S33         S12         S23         S13
Element     1
  2.500e-01  -2.603e-18   2.672e-18   4.824e-18  -4.908e-18  -2.082e-17
  2.500e-01  -3.233e-19   2.672e-18   6.527e-18  -2.108e-18  -4.950e-18
  2.500e-01   3.998e-18   2.672e-18  -1.507e-17   3.201e-18  -8.118e-18
  2.500e-01   8.319e-18   2.672e-18  -2.279e-17   8.510e-18  -4.348e-18
  2.500e-01   1.060e-17   2.672e-18  -3.014e-17   1.131e-17  -2.359e-18

		 *** Successful end of program ***
